Cu Au  O  C  H 
 1.0000000000000000
    17.8685883605840559    0.0000000000000000    0.0000000000000000
     8.9342941802920279   15.4746514500327255    0.0000000000000000
     0.0000000000000000    0.0000000000000000   20.0000000000000000
 Cu  Au  O   C   H  
  49   4   1   2   6
Selective dynamics
Cartesian
  0.0000000000000000  0.0000000000000000 10.0000000000000000   F   F   F
  2.5526554800834367  0.0000000000000000 10.0000000000000000   F   F   F
  5.1053109601668734  0.0000000000000000 10.0000000000000000   F   F   F
  7.6579664402503100  0.0000000000000000 10.0000000000000000   F   F   F
 10.2106219203337467  0.0000000000000000 10.0000000000000000   F   F   F
 12.7632774004171843  0.0000000000000000 10.0000000000000000   F   F   F
 15.3159328805006201  0.0000000000000000 10.0000000000000000   F   F   F
  1.2763277400417183  2.2106644928618180 10.0000000000000000   F   F   F
  3.8289832201251550  2.2106644928618180 10.0000000000000000   F   F   F
  6.3816387002085921  2.2106644928618180 10.0000000000000000   F   F   F
  8.9342941802920279  2.2106644928618180 10.0000000000000000   F   F   F
 11.4869496603754655  2.2106644928618180 10.0000000000000000   F   F   F
 14.0396051404589031  2.2106644928618180 10.0000000000000000   F   F   F
 16.5922606205423371  2.2106644928618180 10.0000000000000000   F   F   F
  2.5526554800834367  4.4213289857236360 10.0000000000000000   F   F   F
  5.1053109601668734  4.4213289857236360 10.0000000000000000   F   F   F
  7.6579664402503100  4.4213289857236360 10.0000000000000000   F   F   F
 10.2106219203337467  4.4213289857236360 10.0000000000000000   F   F   F
 12.7632774004171843  4.4213289857236360 10.0000000000000000   F   F   F
 15.3159328805006218  4.4213289857236360 10.0000000000000000   F   F   F
 17.8685883605840559  4.4213289857236360 10.0000000000000000   F   F   F
  3.8289832201251550  6.6319934785854535 10.0000000000000000   F   F   F
  6.3816387002085921  6.6319934785854535 10.0000000000000000   F   F   F
  8.9342941802920279  6.6319934785854535 10.0000000000000000   F   F   F
 11.4869496603754655  6.6319934785854535 10.0000000000000000   F   F   F
 14.0396051404589013  6.6319934785854535 10.0000000000000000   F   F   F
 16.5922606205423406  6.6319934785854535 10.0000000000000000   F   F   F
 19.1449161006257746  6.6319934785854535 10.0000000000000000   F   F   F
  5.1053109601668734  8.8426579714472719 10.0000000000000000   F   F   F
  7.6579664402503100  8.8426579714472719 10.0000000000000000   F   F   F
 10.2106219203337467  8.8426579714472719 10.0000000000000000   F   F   F
 12.7632774004171843  8.8426579714472719 10.0000000000000000   F   F   F
 15.3159328805006201  8.8426579714472719 10.0000000000000000   F   F   F
 17.8685883605840559  8.8426579714472719 10.0000000000000000   F   F   F
 20.4212438406674934  8.8426579714472719 10.0000000000000000   F   F   F
  6.3816387002085921 11.0533224643090904 10.0000000000000000   F   F   F
  8.9342941802920279 11.0533224643090904 10.0000000000000000   F   F   F
 11.4869496603754655 11.0533224643090904 10.0000000000000000   F   F   F
 14.0396051404589031 11.0533224643090904 10.0000000000000000   F   F   F
 16.5922606205423406 11.0533224643090904 10.0000000000000000   F   F   F
 19.1449161006257782 11.0533224643090904 10.0000000000000000   F   F   F
 21.6975715807092122 11.0533224643090904 10.0000000000000000   F   F   F
  7.6579664402503100 13.2639869571709070 10.0000000000000000   F   F   F
 10.2106219203337467 13.2639869571709070 10.0000000000000000   F   F   F
 12.7632774004171843 13.2639869571709070 10.0000000000000000   F   F   F
 15.3159328805006201 13.2639869571709070 10.0000000000000000   F   F   F
 17.8685883605840559 13.2639869571709070 10.0000000000000000   F   F   F
 20.4212438406674934 13.2639869571709070 10.0000000000000000   F   F   F
 22.9738993207509310 13.2639869571709070 10.0000000000000000   F   F   F
 11.4870000000000001  6.6319999999999997 14.0000000000000000   F   F   F
 12.7635000000000005  7.3689999999999998 12.0000000000000000   F   F   F
 10.2110000000000003  7.3689999999999998 12.0000000000000000   F   F   F
 11.4870000000000001  5.1580000000000004 12.0000000000000000   F   F   F
 12.7862865375678236  8.8779394598592791 11.6786588117437002   T   T   T
 13.9133539928902721  9.5654517784880486 12.2009118279022193   T   T   T
 13.4607378949871883 10.8932965598451581 12.7697230747510080   T   T   T
 14.3829817060350855  8.9441925747196258 12.9692574030045922   T   T   T
 14.6301973040113804  9.7174035839789781 11.3889684948370533   T   T   T
 14.3101483913400074 11.4570708440190554 13.1655707035046312   T   T   T
 12.9653215261798831 11.4945577919982131 12.0002837124698889   T   T   T
 12.7329334014834341 10.7432784623641808 13.5740268231346217   T   T   T
 12.1664233630758432  8.7289385396166370 12.4130467750679720   T   T   T
