Cu Au  O  C  H 
 1.0000000000000000
    17.8685883605840559    0.0000000000000000    0.0000000000000000
     8.9342941802920279   15.4746514500327255    0.0000000000000000
     0.0000000000000000    0.0000000000000000   20.0000000000000000
 Cu  Au  O   C   H  
  49   4   1   2   6
Selective dynamics
Cartesian
  0.0000000000000000  0.0000000000000000 10.0000000000000000   F   F   F
  2.5526554800834367  0.0000000000000000 10.0000000000000000   F   F   F
  5.1053109601668734  0.0000000000000000 10.0000000000000000   F   F   F
  7.6579664402503100  0.0000000000000000 10.0000000000000000   F   F   F
 10.2106219203337467  0.0000000000000000 10.0000000000000000   F   F   F
 12.7632774004171843  0.0000000000000000 10.0000000000000000   F   F   F
 15.3159328805006201  0.0000000000000000 10.0000000000000000   F   F   F
  1.2763277400417183  2.2106644928618180 10.0000000000000000   F   F   F
  3.8289832201251550  2.2106644928618180 10.0000000000000000   F   F   F
  6.3816387002085921  2.2106644928618180 10.0000000000000000   F   F   F
  8.9342941802920279  2.2106644928618180 10.0000000000000000   F   F   F
 11.4869496603754655  2.2106644928618180 10.0000000000000000   F   F   F
 14.0396051404589031  2.2106644928618180 10.0000000000000000   F   F   F
 16.5922606205423371  2.2106644928618180 10.0000000000000000   F   F   F
  2.5526554800834367  4.4213289857236360 10.0000000000000000   F   F   F
  5.1053109601668734  4.4213289857236360 10.0000000000000000   F   F   F
  7.6579664402503100  4.4213289857236360 10.0000000000000000   F   F   F
 10.2106219203337467  4.4213289857236360 10.0000000000000000   F   F   F
 12.7632774004171843  4.4213289857236360 10.0000000000000000   F   F   F
 15.3159328805006218  4.4213289857236360 10.0000000000000000   F   F   F
 17.8685883605840559  4.4213289857236360 10.0000000000000000   F   F   F
  3.8289832201251550  6.6319934785854535 10.0000000000000000   F   F   F
  6.3816387002085921  6.6319934785854535 10.0000000000000000   F   F   F
  8.9342941802920279  6.6319934785854535 10.0000000000000000   F   F   F
 11.4869496603754655  6.6319934785854535 10.0000000000000000   F   F   F
 14.0396051404589013  6.6319934785854535 10.0000000000000000   F   F   F
 16.5922606205423406  6.6319934785854535 10.0000000000000000   F   F   F
 19.1449161006257746  6.6319934785854535 10.0000000000000000   F   F   F
  5.1053109601668734  8.8426579714472719 10.0000000000000000   F   F   F
  7.6579664402503100  8.8426579714472719 10.0000000000000000   F   F   F
 10.2106219203337467  8.8426579714472719 10.0000000000000000   F   F   F
 12.7632774004171843  8.8426579714472719 10.0000000000000000   F   F   F
 15.3159328805006201  8.8426579714472719 10.0000000000000000   F   F   F
 17.8685883605840559  8.8426579714472719 10.0000000000000000   F   F   F
 20.4212438406674934  8.8426579714472719 10.0000000000000000   F   F   F
  6.3816387002085921 11.0533224643090904 10.0000000000000000   F   F   F
  8.9342941802920279 11.0533224643090904 10.0000000000000000   F   F   F
 11.4869496603754655 11.0533224643090904 10.0000000000000000   F   F   F
 14.0396051404589031 11.0533224643090904 10.0000000000000000   F   F   F
 16.5922606205423406 11.0533224643090904 10.0000000000000000   F   F   F
 19.1449161006257782 11.0533224643090904 10.0000000000000000   F   F   F
 21.6975715807092122 11.0533224643090904 10.0000000000000000   F   F   F
  7.6579664402503100 13.2639869571709070 10.0000000000000000   F   F   F
 10.2106219203337467 13.2639869571709070 10.0000000000000000   F   F   F
 12.7632774004171843 13.2639869571709070 10.0000000000000000   F   F   F
 15.3159328805006201 13.2639869571709070 10.0000000000000000   F   F   F
 17.8685883605840559 13.2639869571709070 10.0000000000000000   F   F   F
 20.4212438406674934 13.2639869571709070 10.0000000000000000   F   F   F
 22.9738993207509310 13.2639869571709070 10.0000000000000000   F   F   F
 11.4870000000000001  6.6319999999999997 14.0000000000000000   F   F   F
 12.7635000000000005  7.3689999999999998 12.0000000000000000   F   F   F
 10.2110000000000003  7.3689999999999998 12.0000000000000000   F   F   F
 11.4870000000000001  5.1580000000000004 12.0000000000000000   F   F   F
 13.1030713012410178  2.8791332080932657 14.0969862415900522   T   T   T
 13.7636017529424315  3.1995066308264946 12.8817649274331121   T   T   T
 13.0091318491084298  2.5704867313315707 11.7299452973485678   T   T   T
 13.8089916011875449  4.2877422036069293 12.7790458454106961   T   T   T
 14.7847407705010330  2.8110422599584273 12.9325212017795721   T   T   T
 13.5031897617084589  2.7842209164036551 10.7779686920011102   T   T   T
 12.9433222608374301  1.4850089736669787 11.8579941774961561   T   T   T
 11.9823871089166243  2.9485772472092759 11.6857623787964151   T   T   T
 12.2045771018797460  3.2481996791737071 14.0494949409300318   T   T   T
