INCAR created by Atomic Simulation Environment
 ENCUT = 500.000000
 SIGMA = 0.010000
 EDIFF = 1.00e-05
 ALGO = A
 GGA = PE
 ISMEAR = 0
 NELM = 200
 NCORE = 32
 LCHARG = .FALSE.
 LWAVE = .FALSE.
 LREAL = Auto
