Sr1 Ti1 O3                              
   1.00000000000000     
    23.6707801818999997    0.0000000000000000    0.0000000000000000
     0.0000000000000000   22.3170261383000010    0.0000000000000000
     0.0000000000000000    0.0000000000000000   30.0000000000000000
   Sr   Ti   O 
    48   48   192
Direct
  0.0000000000000000  0.1249999999871179  0.4070133268666680   F   F   F
  0.0000000000000000  0.3750000000061604  0.4070133268666680   F   F   F
  0.0000000000000000  0.6249999999803961  0.4070133268666680   F   F   F
  0.0000000000000000  0.8749999404036828  0.4070133268666680   F   F   F
  0.3333333432766779  0.1249999999871179  0.4070133268666680   F   F   F
  0.3333333432766779  0.3750000000061604  0.4070133268666680   F   F   F
  0.3333333432766779  0.6249999999803961  0.4070133268666680   F   F   F
  0.3333333432766779  0.8749999404036828  0.4070133268666680   F   F   F
  0.6666666865533486  0.1249999999871179  0.4070133268666680   F   F   F
  0.6666666865533486  0.3750000000061604  0.4070133268666680   F   F   F
  0.6666666865533486  0.6249999999803961  0.4070133268666680   F   F   F
  0.6666666865533486  0.8749999404036828  0.4070133268666680   F   F   F
  0.1666666716383389  0.1249999999871179  0.4070133268666680   F   F   F
  0.1666666716383389  0.3750000000061604  0.4070133268666680   F   F   F
  0.1666666716383389  0.6249999999803961  0.4070133268666680   F   F   F
  0.1666666716383389  0.8749999404036828  0.4070133268666680   F   F   F
  0.5000000000021103  0.1249999999871179  0.4070133268666680   F   F   F
  0.5000000000021103  0.3750000000061604  0.4070133268666680   F   F   F
  0.5000000000021103  0.6249999999803961  0.4070133268666680   F   F   F
  0.5000000000021103  0.8749999404036828  0.4070133268666680   F   F   F
  0.8333332538436267  0.1249999999871179  0.4070133268666680   F   F   F
  0.8333332538436267  0.3750000000061604  0.4070133268666680   F   F   F
  0.8333332538436267  0.6249999999803961  0.4070133268666680   F   F   F
  0.8333332538436267  0.8749999404036828  0.4070133268666680   F   F   F
  0.0001630920429950  0.0002186353910725  0.5025759863154262   T   T   T
  0.0007320497121829  0.2494332471784993  0.5028049044914537   T   T   T
  0.9997187454316365  0.7507164693701666  0.5030711096217984   T   T   T
  0.9994926961989256  0.5001676875741508  0.5030592666432563   T   T   T
  0.3307942482920405  0.4994192661922776  0.4987751956519643   T   T   T
  0.3300911149423139  0.2482077536910128  0.5006414996056692   T   T   T
  0.3329526780678535  0.0012036279623655  0.5024021913613098   T   T   T
  0.3339163287477352  0.7514557321314553  0.4996667208686390   T   T   T
  0.6662041639064031  0.0006702335547890  0.5026828217708361   T   T   T
  0.6690715181983783  0.5005311923365073  0.4981509655920385   T   T   T
  0.6663671738335706  0.2477970188281171  0.5010813778988763   T   T   T
  0.6660986044694278  0.7520106619254384  0.4992864590175361   T   T   T
  0.1660945030662747  0.0011007484841731  0.5026665837802584   T   T   T
  0.1664889560769107  0.2493098764368450  0.5035831155668866   T   T   T
  0.1636891112112820  0.4999529746005756  0.4997442589710738   T   T   T
  0.4998951633771964  0.0000593534223835  0.5023895474758125   T   T   T
  0.1642689205125131  0.7512579183077471  0.5005819449190618   T   T   T
  0.4997270860340909  0.7527535414786573  0.5009620816115553   T   T   T
  0.8340423296294834  0.0003789641337604  0.5026946027734679   T   T   T
  0.5004390664027218  0.4999500730189902  0.4993705780915991   T   T   T
  0.5000642681394445  0.2478831679405032  0.4999085102609294   T   T   T
  0.8356571970406321  0.2487415666469535  0.4997816576657181   T   T   T
  0.8359076787293358  0.4999330067053504  0.5000481549559724   T   T   T
  0.8352047029918490  0.7515478762808722  0.5008545667549023   T   T   T
  0.0833333358191695  0.0000000000000000  0.4070133268666680   F   F   F
  0.0833333358191695  0.2500000000190425  0.4070133268666680   F   F   F
  0.0833333358191695  0.4999999999932783  0.4070133268666680   F   F   F
  0.0833333358191695  0.7500000000123208  0.4070133268666680   F   F   F
  0.4166666269218169  0.0000000000000000  0.4070133268666680   F   F   F
  0.4166666269218169  0.2500000000190425  0.4070133268666680   F   F   F
  0.4166666269218169  0.4999999999932783  0.4070133268666680   F   F   F
  0.4166666269218169  0.7500000000123208  0.4070133268666680   F   F   F
  0.7499999404149307  0.0000000000000000  0.4070133268666680   F   F   F
  0.7499999404149307  0.2500000000190425  0.4070133268666680   F   F   F
  0.7499999404149307  0.4999999999932783  0.4070133268666680   F   F   F
  0.7499999404149307  0.7500000000123208  0.4070133268666680   F   F   F
  0.2499999999799343  0.0000000000000000  0.4070133268666680   F   F   F
  0.2499999999799343  0.2500000000190425  0.4070133268666680   F   F   F
  0.2499999999799343  0.4999999999932783  0.4070133268666680   F   F   F
  0.2499999999799343  0.7500000000123208  0.4070133268666680   F   F   F
  0.5833333134730552  0.0000000000000000  0.4070133268666680   F   F   F
  0.5833333134730552  0.2500000000190425  0.4070133268666680   F   F   F
  0.5833333134730552  0.4999999999932783  0.4070133268666680   F   F   F
  0.5833333134730552  0.7500000000123208  0.4070133268666680   F   F   F
  0.9166666865332829  0.0000000000000000  0.4070133268666680   F   F   F
  0.9166666865332829  0.2500000000190425  0.4070133268666680   F   F   F
  0.9166666865332829  0.4999999999932783  0.4070133268666680   F   F   F
  0.9166666865332829  0.7500000000123208  0.4070133268666680   F   F   F
  0.0832659629778413  0.1254480558732766  0.5032859709646966   T   T   T
  0.0824874166944971  0.3748878178163261  0.5029318716401746   T   T   T
  0.0826224908910835  0.8751935515977622  0.5030811867281466   T   T   T
  0.0809816282667353  0.6255615321493020  0.5024444667171527   T   T   T
  0.4165897515299983  0.6253411389795214  0.4990873035683129   T   T   T
  0.4149198316890189  0.3743258496239631  0.4981040357125484   T   T   T
  0.4160603761419761  0.1233500504320722  0.5013565735530809   T   T   T
  0.7505207999926892  0.8784846659363656  0.5007937173026058   T   T   T
  0.2489813016825566  0.1255395479940946  0.5036592115306983   T   T   T
  0.2473854688890439  0.6252794498115944  0.5004717406963047   T   T   T
  0.2472585951670362  0.3732098995694921  0.5014845865368867   T   T   T
  0.7515810003528697  0.3756629467136071  0.4994976632528325   T   T   T
  0.7527383429516402  0.6254205117774750  0.5000257245054394   T   T   T
  0.7503165005087065  0.1227998600589979  0.5016306372585593   T   T   T
  0.4163757819980625  0.8768698587836548  0.5018494413866054   T   T   T
  0.2490492601230902  0.8777376336186341  0.5003483646297303   T   T   T
  0.5833528445431774  0.1235097568724512  0.5021731057235949   T   T   T
  0.5834661395047122  0.6262797796282008  0.4989804999113131   T   T   T
  0.5833612959080557  0.3729831796637074  0.4984391754456576   T   T   T
  0.9192085335543860  0.3750129028958387  0.5024396850730353   T   T   T
  0.9175654803308745  0.1251942825701100  0.5030695205451686   T   T   T
  0.5834543668878740  0.8767556130303735  0.5023686394855270   T   T   T
  0.9176604892246278  0.6257503259458811  0.5028213158727323   T   T   T
  0.9171732227108153  0.8752999143775415  0.5031461866425209   T   T   T
  0.0833333358191695  0.1875000000030838  0.3605200052333331   F   F   F
  0.0833333358191695  0.4374999701794380  0.3605200052333331   F   F   F
  0.0833333358191695  0.6874999999963620  0.3605200052333331   F   F   F
  0.0833333358191695  0.9375000000154046  0.3605200052333331   F   F   F
  0.4166666269218169  0.1875000000030838  0.3605200052333331   F   F   F
  0.4166666269218169  0.4374999701794380  0.3605200052333331   F   F   F
  0.4166666269218169  0.6874999999963620  0.3605200052333331   F   F   F
  0.4166666269218169  0.9375000000154046  0.3605200052333331   F   F   F
  0.7499999404149307  0.1875000000030838  0.3605200052333331   F   F   F
  0.7499999404149307  0.4374999701794380  0.3605200052333331   F   F   F
  0.7499999404149307  0.6874999999963620  0.3605200052333331   F   F   F
  0.7499999404149307  0.9375000000154046  0.3605200052333331   F   F   F
  0.2499999999799343  0.1875000000030838  0.3605200052333331   F   F   F
  0.2499999999799343  0.4374999701794380  0.3605200052333331   F   F   F
  0.2499999999799343  0.6874999999963620  0.3605200052333331   F   F   F
  0.2499999999799343  0.9375000000154046  0.3605200052333331   F   F   F
  0.5833333134730552  0.1875000000030838  0.3605200052333331   F   F   F
  0.5833333134730552  0.4374999701794380  0.3605200052333331   F   F   F
  0.5833333134730552  0.6874999999963620  0.3605200052333331   F   F   F
  0.5833333134730552  0.9375000000154046  0.3605200052333331   F   F   F
  0.9166666865332829  0.1875000000030838  0.3605200052333331   F   F   F
  0.9166666865332829  0.4374999701794380  0.3605200052333331   F   F   F
  0.9166666865332829  0.6874999999963620  0.3605200052333331   F   F   F
  0.9166666865332829  0.9375000000154046  0.3605200052333331   F   F   F
  0.0833333358191695  0.0625000000159659  0.3605200052333331   F   F   F
  0.0833333358191695  0.3124999999901945  0.3605200052333331   F   F   F
  0.0833333358191695  0.5625000000092442  0.3605200052333331   F   F   F
  0.0833333358191695  0.8124999999834799  0.3605200052333331   F   F   F
  0.4166666269218169  0.0625000000159659  0.3605200052333331   F   F   F
  0.4166666269218169  0.3124999999901945  0.3605200052333331   F   F   F
  0.4166666269218169  0.5625000000092442  0.3605200052333331   F   F   F
  0.4166666269218169  0.8124999999834799  0.3605200052333331   F   F   F
  0.7499999404149307  0.0625000000159659  0.3605200052333331   F   F   F
  0.7499999404149307  0.3124999999901945  0.3605200052333331   F   F   F
  0.7499999404149307  0.5625000000092442  0.3605200052333331   F   F   F
  0.7499999404149307  0.8124999999834799  0.3605200052333331   F   F   F
  0.2499999999799343  0.0625000000159659  0.3605200052333331   F   F   F
  0.2499999999799343  0.3124999999901945  0.3605200052333331   F   F   F
  0.2499999999799343  0.5625000000092442  0.3605200052333331   F   F   F
  0.2499999999799343  0.8124999999834799  0.3605200052333331   F   F   F
  0.5833333134730552  0.0625000000159659  0.3605200052333331   F   F   F
  0.5833333134730552  0.3124999999901945  0.3605200052333331   F   F   F
  0.5833333134730552  0.5625000000092442  0.3605200052333331   F   F   F
  0.5833333134730552  0.8124999999834799  0.3605200052333331   F   F   F
  0.9166666865332829  0.0625000000159659  0.3605200052333331   F   F   F
  0.9166666865332829  0.3124999999901945  0.3605200052333331   F   F   F
  0.9166666865332829  0.5625000000092442  0.3605200052333331   F   F   F
  0.9166666865332829  0.8124999999834799  0.3605200052333331   F   F   F
  0.0000000000000000  0.0000000000000000  0.4070133268666680   F   F   F
  0.0000000000000000  0.2500000000190425  0.4070133268666680   F   F   F
  0.0000000000000000  0.4999999999932783  0.4070133268666680   F   F   F
  0.0000000000000000  0.7500000000123208  0.4070133268666680   F   F   F
  0.3333333432766779  0.0000000000000000  0.4070133268666680   F   F   F
  0.3333333432766779  0.2500000000190425  0.4070133268666680   F   F   F
  0.3333333432766779  0.4999999999932783  0.4070133268666680   F   F   F
  0.3333333432766779  0.7500000000123208  0.4070133268666680   F   F   F
  0.6666666865533486  0.0000000000000000  0.4070133268666680   F   F   F
  0.6666666865533486  0.2500000000190425  0.4070133268666680   F   F   F
  0.6666666865533486  0.4999999999932783  0.4070133268666680   F   F   F
  0.6666666865533486  0.7500000000123208  0.4070133268666680   F   F   F
  0.1666666716383389  0.0000000000000000  0.4070133268666680   F   F   F
  0.1666666716383389  0.2500000000190425  0.4070133268666680   F   F   F
  0.1666666716383389  0.4999999999932783  0.4070133268666680   F   F   F
  0.1666666716383389  0.7500000000123208  0.4070133268666680   F   F   F
  0.5000000000021103  0.0000000000000000  0.4070133268666680   F   F   F
  0.5000000000021103  0.2500000000190425  0.4070133268666680   F   F   F
  0.5000000000021103  0.4999999999932783  0.4070133268666680   F   F   F
  0.5000000000021103  0.7500000000123208  0.4070133268666680   F   F   F
  0.8333332538436267  0.0000000000000000  0.4070133268666680   F   F   F
  0.8333332538436267  0.2500000000190425  0.4070133268666680   F   F   F
  0.8333332538436267  0.4999999999932783  0.4070133268666680   F   F   F
  0.8333332538436267  0.7500000000123208  0.4070133268666680   F   F   F
  0.0835390393465582  0.0628181408528782  0.4527131449527274   T   T   T
  0.0842781835468391  0.3128053484638474  0.4527589410887066   T   T   T
  0.0836800446442874  0.5630548114867081  0.4528422737404774   T   T   T
  0.0836894067046711  0.8126133281745247  0.4528753062249992   T   T   T
  0.4169525950208335  0.0636877680183054  0.4525727987900760   T   T   T
  0.4173578296008465  0.3125563847770930  0.4545539620306823   T   T   T
  0.4160395694411958  0.5605926419388954  0.4553916656459311   T   T   T
  0.4166191722351850  0.8110642398435295  0.4541275221685322   T   T   T
  0.7498398637818529  0.0634297903056154  0.4529760269204826   T   T   T
  0.7502438681172097  0.3126312558057394  0.4545109560264742   T   T   T
  0.7489917859698451  0.5628762641048326  0.4535327132543879   T   T   T
  0.7498546777339994  0.8118931076130522  0.4539409204757578   T   T   T
  0.2505283138754245  0.0622846914603223  0.4533672475096726   T   T   T
  0.2508231573430370  0.3140072937656683  0.4532456711482040   T   T   T
  0.2513328840015187  0.5652259790677875  0.4521160608388515   T   T   T
  0.2505256624297216  0.8119932673595547  0.4537505906871862   T   T   T
  0.5827933919522751  0.0635091231961289  0.4530603086859373   T   T   T
  0.5821346674493488  0.3136614110126059  0.4533614346620621   T   T   T
  0.5842115940064077  0.5605185527791082  0.4555514362321562   T   T   T
  0.5831375134923593  0.8095183891514486  0.4554924036031637   T   T   T
  0.9157762505611359  0.0634435155115757  0.4524862565522367   T   T   T
  0.9151054866347716  0.3138180159644834  0.4518882822789269   T   T   T
  0.9161890579097515  0.5636332294957047  0.4523363156351743   T   T   T
  0.9161016338879808  0.8130494091302816  0.4526535176110146   T   T   T
  0.0834315935377726  0.1873289110715980  0.4528308425244455   T   T   T
  0.0838510401029291  0.4372873068322987  0.4527253142140194   T   T   T
  0.0837591078369162  0.6872373829739158  0.4527572617827723   T   T   T
  0.0838172872323628  0.9370087137775596  0.4528629166444069   T   T   T
  0.4167007143421031  0.1885380152369356  0.4539244104569033   T   T   T
  0.4175718616194222  0.4359692701084559  0.4526010957226980   T   T   T
  0.4166393847970482  0.6857552756681835  0.4534648783151062   T   T   T
  0.4169091042358739  0.9369332769373728  0.4534554405835204   T   T   T
  0.7494191341224699  0.1887087205870734  0.4544158018062907   T   T   T
  0.7495672756646475  0.4364644272496149  0.4527816992362636   T   T   T
  0.7480329903266790  0.6876063213660637  0.4548019737126220   T   T   T
  0.7491051292348350  0.9371236403750937  0.4531279429896757   T   T   T
  0.2504277749780706  0.1880923350493686  0.4533796095241934   T   T   T
  0.2501564782527217  0.4394367194463656  0.4544647989507317   T   T   T
  0.2513777455882013  0.6884829110419339  0.4552322795851368   T   T   T
  0.2504931800602450  0.9362144455399807  0.4528362922785006   T   T   T
  0.5833507260511159  0.1900845560003188  0.4553730892833371   T   T   T
  0.5828028982129440  0.4369383271489706  0.4536655412916038   T   T   T
  0.5843726491403842  0.6844778888847781  0.4521360900221437   T   T   T
  0.5830877835103971  0.9360802989289390  0.4528538988691924   T   T   T
  0.9160767789980987  0.1880251992269094  0.4533120192540784   T   T   T
  0.9158559049628319  0.4382332110288345  0.4538983721564525   T   T   T
  0.9163470953513414  0.6879281887608869  0.4534159901985730   T   T   T
  0.9163848703389215  0.9374229682194827  0.4530782812162307   T   T   T
  0.0000193943498756  0.1250847151963252  0.4970560595087337   T   T   T
  0.0002331380619286  0.3736174332193929  0.4959124365476977   T   T   T
  0.9993201639664774  0.6260414755688465  0.4969740245394034   T   T   T
  0.3335910026624294  0.1260272773685422  0.4979772627363752   T   T   T
  0.9999151504335011  0.8747902166265351  0.4975741510746962   T   T   T
  0.3336019894927282  0.8740904460440444  0.4982289313752857   T   T   T
  0.6659876948684526  0.1254091927915278  0.4974338476883254   T   T   T
  0.3351341423925550  0.6252244529488700  0.5010802010521718   T   T   T
  0.3340525085629040  0.3770494754414337  0.4986429676119393   T   T   T
  0.6659256712438977  0.3738304411449186  0.4980010629735259   T   T   T
  0.6659146992358298  0.6235723512177117  0.5014387803356866   T   T   T
  0.1669159806551219  0.1249017641605267  0.4969707540911458   T   T   T
  0.6663401026227039  0.8738449963923631  0.4979945086565268   T   T   T
  0.1675686041432420  0.8741989072623821  0.4976456301481473   T   T   T
  0.1671035965077358  0.6252051314643682  0.4982941958457190   T   T   T
  0.1669713901568766  0.3757282685776351  0.4980902137377916   T   T   T
  0.8322315393565439  0.1265767486207018  0.4985398175165909   T   T   T
  0.8323552403227346  0.3759703331165635  0.4999519938514881   T   T   T
  0.8323519312434334  0.8751808842425708  0.4975486762101679   T   T   T
  0.8329837551090556  0.6262955090318684  0.4965898952113234   T   T   T
  0.5003617092014258  0.6231629650393077  0.4968447586596676   T   T   T
  0.4999782955560108  0.8737822085523189  0.4985476985340040   T   T   T
  0.5002325911849026  0.3759197351789850  0.5001701640106438   T   T   T
  0.5002550140756440  0.1266466901631627  0.4981983972200519   T   T   T
  0.0847046809518528  0.1883661741428816  0.5437874177045505   T   T   T
  0.0815523699259822  0.4381360738128647  0.5430075119912311   T   T   T
  0.0848714349623567  0.6884634711758577  0.5432690391439070   T   T   T
  0.4175200232202010  0.1862201886971595  0.5463723278737819   T   T   T
  0.0840937988271974  0.9376744277150630  0.5436226093544470   T   T   T
  0.4166657097414515  0.9368490712045733  0.5443652351232404   T   T   T
  0.7454977799460479  0.1861133259902862  0.5476689643875028   T   T   T
  0.4218063804641498  0.6874883755719188  0.5446342646311259   T   T   T
  0.4182044069832686  0.4409517576254973  0.5424786018305133   T   T   T
  0.7457265829824957  0.4405998634866967  0.5415759406456375   T   T   T
  0.7508109585582130  0.6838557468281253  0.5483970718155224   T   T   T
  0.7488790152724996  0.9380978211431931  0.5432595728578858   T   T   T
  0.2494201795994620  0.1884805411912089  0.5448723220697780   T   T   T
  0.2510497534321620  0.4361499268562807  0.5468593079572900   T   T   T
  0.2498503317312226  0.6825675466162411  0.5493513379646510   T   T   T
  0.2509006715185046  0.9375766414036822  0.5428702110232212   T   T   T
  0.5844134055424945  0.1849144103549632  0.5494941470574525   T   T   T
  0.5794295644203569  0.6902003339198282  0.5420610644532119   T   T   T
  0.5858951064196797  0.4401626243470281  0.5451198714801183   T   T   T
  0.9188375892894775  0.4331369659971138  0.5464883184403438   T   T   T
  0.9169316366747379  0.1868568743205870  0.5442959685480734   T   T   T
  0.5832964217092199  0.9390667804488877  0.5428374059287169   T   T   T
  0.9141897273906263  0.6868586849653628  0.5446664177880988   T   T   T
  0.9157171928308062  0.9370867982072328  0.5442518672468502   T   T   T
  0.0833674055098333  0.0620504841609057  0.5432525165046260   T   T   T
  0.0841007447052094  0.3126660383006076  0.5437696108964943   T   T   T
  0.0820185574216221  0.5631200619264006  0.5432236125457666   T   T   T
  0.0851418378886596  0.8118592732441527  0.5433477886045491   T   T   T
  0.4170232581280813  0.0611932491197147  0.5420162150596692   T   T   T
  0.4215726857169503  0.5638821107622448  0.5483818520298442   T   T   T
  0.4149428072410550  0.3161088902298088  0.5469974673279538   T   T   T
  0.7485325203357300  0.3149260786978115  0.5477249914091293   T   T   T
  0.7491678958016398  0.0615203877250583  0.5427890313652236   T   T   T
  0.4160500096235764  0.8124603587998479  0.5460654625849711   T   T   T
  0.7537669666370631  0.5618363251831847  0.5435500253135345   T   T   T
  0.7488756387326059  0.8130884792463703  0.5463846568918838   T   T   T
  0.2505079635908510  0.0627832353153509  0.5442619610371662   T   T   T
  0.2519979311863190  0.3137768108397445  0.5444981115383682   T   T   T
  0.2510803999539342  0.5588963545605000  0.5406462717547097   T   T   T
  0.2520443659684757  0.8117947152136529  0.5462561902178690   T   T   T
  0.5827746104979115  0.0618407420465673  0.5431111541667590   T   T   T
  0.5839119713936692  0.3136062212643594  0.5451985774213435   T   T   T
  0.5835815422748495  0.8164142341184624  0.5493933137933760   T   T   T
  0.5787663612328915  0.5663094082211723  0.5495386109381702   T   T   T
  0.9145332907118051  0.5605880332110115  0.5426207877351791   T   T   T
  0.9144063703206561  0.8112049426091181  0.5428581340938460   T   T   T
  0.9157303138953101  0.3096433942327413  0.5413067631590736   T   T   T
  0.9159941077928880  0.0615136133341068  0.5429100817531957   T   T   T
