Au  C  O Sr Ti 
 1.0000000000000000
    23.6707801818999997    0.0000000000000000    0.0000000000000000
     0.0000000000000000   22.3170261383000010    0.0000000000000000
     0.0000000000000000    0.0000000000000000   30.0000000000000000
 Au  C   O   Sr  Ti 
  50   1 265  72  72
Cartesian
  6.1936128750545176 13.4768163089452653 20.6089781175153917
 14.7640319955218597 12.3492133002238553 21.0352883007554041
 17.5303903954877001  5.6808305001846913 20.7094644733966220
  7.0680554468234114 16.7197173803529680 20.4965496446097148
 12.5194595250298484 13.4159426732378080 22.9957268254262424
 13.7329622632456729 16.1071081847273234 23.5621547383579895
 12.9890943169338371  8.4351475503246736 24.7511869509606512
  6.1233447776812193 10.6692180363272531 20.9925139771374099
  7.1424283100507502 14.9315610628467343 22.6020088318892221
 14.3895170712961988  6.7610608568530424 23.1635008275414904
 12.1964891997437750 10.7430630256353457 19.9864325057228989
 12.8432460250051932 10.4760918403483920 22.5313324597318072
 13.4742734076568453 11.1589662440314257 25.2324932278453424
 17.9222046423667791  9.4393850926887524 20.6229504252782476
 17.2795346547679038 13.5216257481695123 20.6315708814029648
 15.2312220266582710 12.6514573288258223 23.8054864353431590
 14.0630428500003610 17.4031784304289232 21.1829091377953560
 11.5270571584944559 16.4864325474820781 21.9970346824992404
  8.4826517823515530 11.8490726195085454 20.6616207335102509
 10.5605120863726558  8.9315248318045306 23.5031209609417893
  9.0511778836974202  7.0504289729995682 22.1950961694806708
 10.8029737794672744  5.7939626924245822 20.4560364084562067
  9.3951084950889943 17.9549673764956097 21.0595026061044273
  7.1219983358281631 12.1840893164583353 23.0436291883752915
 13.2095879187136163  4.9253952766695193 21.2309033659948625
 11.0502592623058877 13.1136888068179829 20.7879730620460279
 15.1184640733150939  6.8471381370989031 20.5087171064785352
 16.5250643770601151 16.6128185705665281 20.4348832524687687
 15.3247640723077918  9.6170444010231524 23.7001069175443675
  8.9001967167212328 13.8774991070741915 24.3856044595863075
 11.2231925357326947 15.3658253299607441 24.6747551640864167
 20.5569588974900768  9.7353134724719617 20.8473428875277449
 11.0864361907202618 10.0205361684870109 25.9778112439548181
 12.4788164650575890  8.0449268218902628 20.9099616811480260
  6.8697307068373501  7.8410002808536268 20.8608509372043756
 15.7667895870296384 14.8867975198019842 22.2632750952329985
 10.0270951996431101  9.4105945500041486 20.8821205043478706
  8.7172123991522259 11.0999773096244478 25.0593618653180279
 11.0897426413571178 12.7237264507811094 25.5363492687169717
  7.8841587144192902  9.5111496614592053 22.7955013014191081
 11.7000642105559400  6.4108357648024219 23.0344665500159316
  9.2518345655236889 15.1104488252003399 20.8861304600564921
 16.8856287838915726  7.6415331338941650 22.4721471824793575
 18.9740652595051067  9.5144900026240897 23.0245896171493278
 17.0340251305772412 11.4111739546028588 22.2868189122462645
 15.0848162301057140  9.5873836142325732 20.9394911649222308
 13.5678356868174657 14.0268663617655598 25.4519597579728014
 13.2632798997075536 14.7367583114847793 20.7689085166713063
  9.1431425396999870 16.5898099293765853 23.3786802626818933
 10.2891358842755096 11.6397546019400551 22.9317635074941748
 15.3059280397801238  8.9312107785666655  1.2660468653066577
  5.9278208129482266  4.1976615577106404 13.6013882857258022
 17.7319028472515683 20.9138127770698148 13.5938382896902699
 17.7065244828321475 15.3453282467867549 13.6440592113786590
 17.7428422138035131  9.7405880313677944 13.5834509770879084
 17.7393355879228167  4.2114174498668682 13.6324740541887213
  9.8685637622002051 20.9095644312544238 13.6036632175056109
  9.8621792926529768 15.3040184115639732 13.6039463494531851
  1.9826434298397011 15.3370946390457661 13.5827178534831692
  9.8636310108326271  4.2076078141058959 13.6177323137070996
  1.9840205815204333 20.9112479571886603 13.5858874993322072
  1.9848195383001161  9.7589522565232230 13.5817594264205823
  1.9748909108582438  4.1806242048441291 13.5849252757333652
 21.6848404000418249 18.1448449152898661 13.5796055283304380
  5.9213990077984233  9.8069207540133458 13.6339439685219510
 21.6612608173823062  7.0034848649488231 13.5566484683678077
 21.6869097948437748 12.5786175150700856 13.5700894690552296
  9.8842517465401087  9.7295375965059829 13.5780328716809411
  5.9503073584398960 15.3648911214957131 13.6569683875541035
 15.7629801814985075  8.3427837263233684 14.9400318892057768
 13.8083668053077311  4.2421220047462649 13.6611926785001128
  0.0004590793926762  2.7915188585382005 14.9116817852620116
 21.6771383228372230  1.4158705939774765 13.5745876965671002
  0.0055185598159461  8.3380300228817461 14.8773730964309294
 23.6546879325907504 13.9713839739298482 14.9092207361821032
  7.8963592946819841  2.8125540431725402 14.9393178820912560
 23.6687717264628752 19.5227161299835039 14.9272245322408867
  7.8966193615268825 19.5070993316032464 14.9468679412585708
 15.7644483290814303  2.7987602335116297 14.9230154306497607
  7.9328866160237439 13.9531504587642505 15.0324060315651522
  7.9072834994047687  8.4146229988587802 14.9592890283581799
 21.6915448278115441 20.9204928843969675 13.5923484364869225
 21.6906506643841617 15.3525113698500899 13.6024797059571902
 21.6790238046702903  9.7800620252016390 13.6169511646935746
 21.6842520654069801  4.1961632858060023 13.5993605776223507
 13.8021427502259062 20.8905284987448105 13.5856169660757722
 13.8325565221166080 15.2755109373299973 13.5640827006643114
 13.7953992929728368  9.7511640678086540 13.6099662387481146
  5.9293690022711560 20.8935222521697916 13.5850887683550177
 13.8033198976973832 18.0660430501273908 13.6647721080949101
 13.8287442214430829 12.5091071933734472 13.6665430869646869
 13.7795817494569928  6.9999899081443857 13.6008430398618625
 21.6982156369999721 15.3429554700000619 10.8156001569999933
 21.6982156369999721  9.7636982699999884 10.8156001569999933
 21.6982156369999721  4.1844424010000720 10.8156001569999933
 13.8079546360000549 20.9222120050000342 10.8156001569999933
 13.8079546360000549 15.3429554700000619 10.8156001569999933
 13.8079546360000549  9.7636982699999884 10.8156001569999933
 13.8079546360000549  4.1844424010000720 10.8156001569999933
  5.9176950450000287 20.9222120050000342 10.8156001569999933
  5.9176950450000287 15.3429554700000619 10.8156001569999933
  5.9176950450000287  9.7636982699999884 10.8156001569999933
  5.9176950450000287  4.1844424010000720 10.8156001569999933
 17.7530837259999217 20.9222120050000342 10.8156001569999933
 17.7530837259999217 15.3429554700000619 10.8156001569999933
 17.7530837259999217  9.7636982699999884 10.8156001569999933
 17.7530837259999217  4.1844424010000720 10.8156001569999933
  9.8628241350000643 20.9222120050000342 10.8156001569999933
  9.8628241350000643 15.3429554700000619 10.8156001569999933
  9.8628241350000643  9.7636982699999884 10.8156001569999933
  9.8628241350000643  4.1844424010000720 10.8156001569999933
 21.6982156369999721 20.9222120050000342 10.8156001569999933
  1.9725650740000149 20.9222120050000342 10.8156001569999933
  1.9725650740000149  1.3948141340000613 10.8156001569999933
  1.9725650740000149 12.5533272030000536 10.8156001569999933
 21.6982156369999721  6.9740706679999214 10.8156001569999933
 21.6982156369999721  1.3948141340000613 10.8156001569999933
 13.8079546360000549 18.1325837370000720 10.8156001569999933
 13.8079546360000549 12.5533272030000536 10.8156001569999933
 13.8079546360000549  6.9740706679999214 10.8156001569999933
 13.8079546360000549  1.3948141340000613 10.8156001569999933
  5.9176950450000287 18.1325837370000720 10.8156001569999933
  5.9176950450000287 12.5533272030000536 10.8156001569999933
  5.9176950450000287  6.9740706679999214 10.8156001569999933
  5.9176950450000287  1.3948141340000613 10.8156001569999933
 17.7530837259999217 18.1325837370000720 10.8156001569999933
 17.7530837259999217 12.5533272030000536 10.8156001569999933
 17.7530837259999217  6.9740706679999214 10.8156001569999933
 17.7530837259999217  1.3948141340000613 10.8156001569999933
  9.8628241350000643 18.1325837370000720 10.8156001569999933
  9.8628241350000643 12.5533272030000536 10.8156001569999933
  9.8628241350000643  6.9740706679999214 10.8156001569999933
  9.8628241350000643  1.3948141340000613 10.8156001569999933
  1.9725650740000149 18.1325837370000720 10.8156001569999933
  1.9725650740000149  6.9740706679999214 10.8156001569999933
 15.7627204655073783 13.9162804612468598 15.0431634100705978
  1.9725650740000149 15.3429554700000619 10.8156001569999933
  1.9725650740000149  4.1844424010000720 10.8156001569999933
 19.7256482699999580 16.7377696039999648 12.2103998060000407
  1.9774342369794740  1.4019140913730939 13.5813943485818225
  1.9949303568670496  6.9808851378677224 13.5827682326611985
  1.9807719423865053 12.5657089452444453 13.5852682122143218
  1.9809935496598974 18.1351128852018242 13.5862591867499773
  9.8695932230109218  1.4213215835545085 13.5771839637022804
  9.8791854416765137  6.9753290087629374 13.6366188609204695
  9.8479811952148655 12.5107606430889806 13.6617499693779330
  9.8617008455442008 18.1005418404284697 13.6238256650559659
 17.7492945872060766  1.4155642881973067 13.5892808076144789
 17.7588576850208426  6.9769999074662401 13.6353286807942258
 17.7292199237408958 12.5617242986562037 13.6059813976316359
 17.7496452450109636 18.1190397041061004 13.6182276142727332
  5.9302006470872213  1.3900090873359636 13.6010174252901788
  5.9371798219971454  7.0077089825852674 13.5973701344461197
 21.6760509661181722  6.9103197226440187 16.2392028947722054
  5.9492454496829206 12.6141629489020222 13.5634818251655442
  5.9301378852988229 18.1212749717868036 13.6125177206155854
 13.7951742723661912  1.4173347623885237 13.5918092605781187
 19.7256482699999580 11.1585130689999925 12.2103998060000407
  1.9725650740000149  9.7636982699999884 10.8156001569999933
 19.7256482699999580  5.5792565349999723 12.2103998060000407
 11.8353900909999528 16.7377696039999648 12.2103998060000407
  0.0000000000000000  0.0000000000000000 12.2103998060000407
  0.0000000000000000  5.5792565349999723 12.2103998060000407
  0.0000000000000000 11.1585130689999925 12.2103998060000407
  0.0000000000000000 16.7377696039999648 12.2103998060000407
  7.8902602960000570  0.0000000000000000 12.2103998060000407
  7.8902602960000570  5.5792565349999723 12.2103998060000407
  7.8902602960000570 11.1585130689999925 12.2103998060000407
  7.8902602960000570 16.7377696039999648 12.2103998060000407
 15.7805205919999434  0.0000000000000000 12.2103998060000407
 15.7805205919999434  5.5792565349999723 12.2103998060000407
 15.7805205919999434 11.1585130689999925 12.2103998060000407
 15.7805205919999434 16.7377696039999648 12.2103998060000407
  3.9451301480000271  0.0000000000000000 12.2103998060000407
  3.9451301480000271  5.5792565349999723 12.2103998060000407
  3.9451301480000271 11.1585130689999925 12.2103998060000407
  3.9451301480000271 16.7377696039999648 12.2103998060000407
 11.8353900909999528  0.0000000000000000 12.2103998060000407
 11.8353900909999528  5.5792565349999723 12.2103998060000407
 11.8353900909999528 11.1585130689999925 12.2103998060000407
 19.7256482699999580  0.0000000000000000 12.2103998060000407
  3.9510314869336631  2.7874359354902567 14.9091226227343743
 21.6822951734810658  1.3728009166385409 16.2873024525958705
  3.9664795940624993 19.5095198634478812 14.9293689044444182
 17.7265505533530714 20.9355535947349196 16.2977871857365741
 17.7722811581930920 15.2616265767899417 16.4519121544656741
 17.6519300215780639  9.8328786699640229 16.2472782193691252
  9.8992245888027970  9.8407319006575502 16.2743580549153997
  9.9844861112897689 15.3426960474159184 16.3390279389337749
 17.6465140751973593  4.1534959608111661 16.4300689316250832
  9.8628024246252473 20.9076852097145398 16.3309570536972117
  1.9905658266995099 20.9261047125325561 16.3086782806334085
  9.8830246911871615  4.1558808186336673 16.3911698362134572
  2.0089730807163679 15.3644572814963656 16.2980711743172115
  1.9304082218309169  9.7778942114138392 16.2902253597369331
  2.0050258831892798  4.2037728319182586 16.3136225311365166
 11.8414264730778598  2.8263774947004840 14.9459519166015564
 23.6296730210497969 11.1707832422260420 17.6727555773283775
 23.6610497917607354 16.7805087013529537 17.6323909563618137
  7.9067853106199717  5.5425427239031801 17.6347289837890067
  7.8925525725787260  0.0199215559159502 17.6161768191841190
 23.6677129920246756 22.3084278502528868 17.6183861063425482
  0.0040520978405133  5.5810708503142239 17.6381149666008668
  7.8921482524329774 11.1878400230581967 17.6220576711116550
  7.9335041916732880 16.5800828630775037 17.5964573395791426
 15.7215474510524551  5.6321181450288611 17.7430281011572468
 15.7679065651081931  0.0294221899088331 17.6304186580716085
 15.7439849959729656 16.6044627853665538 17.5274754159945019
 15.8120743773853114 11.4356114648333911 17.6321930231380861
  3.9495861701324877 22.3081982616895864 17.6194774291233998
  3.9884476007211962  5.6614669104379090 17.6871818461118053
  4.0279541794086109 16.7485375634882203 17.6810723463754016
  3.9268609440187521 11.1957766527206299 17.5263648530675908
  5.9039702442288835  4.2063251643251389 16.3461696620933381
  5.9425435282129024  9.7335693178692502 16.4057792387187007
  5.9141522807845641 15.2328777789899572 16.4805401389395278
  5.9390146430056205 20.9239224128655046 16.2861063306966365
 21.6447121887892990 18.1036819077258428 16.2857440228153791
 21.6477164934687885 12.5106577899883327 16.2786236320553712
 13.6998513134219042 12.6383418656371074 16.4861583281451090
 13.8138304054021432 18.2199378025018994 16.4817994138012800
 13.8216519204394253  6.9987582370902022 16.3559573226403039
 13.7947297006884533  1.3801014566651104 16.2933346250027711
  5.9660867829261450 18.1168438783568959 16.3876857065360682
  5.9432689552931119 12.4729045533272647 16.2193881526412902
  5.9649876354049205  7.0025652891029937 16.3349433461510465
  5.9297189399744417  1.4011351035797259 16.3278588311149839
 17.7264706280194702 18.1457168440918437 16.3915397067565110
 17.8422521756434733 12.5385159545595517 16.3065007594060347
  9.8482283224770573 18.1316990636688047 16.3819638775491327
 17.7333885808571772  1.3729521008984766 16.2836709409567071
 11.8558189323881056 10.9949632069053855 17.8774798833992605
 17.7183487478706567  7.0282135299313815 16.4317497422738796
  9.9789543742991444 12.5841718048007944 16.4514555608953259
  9.8712658738895538  1.3656513400921766 16.2604864517900758
  2.0153737289454261 18.1182846216110001 16.3004336581364733
  1.9414432435637596 12.5671651410125982 16.2967083763729974
  1.9907302410511019  6.9777761493133683 16.3130883268948317
  1.9733715301585830  1.3847822769131028 16.2975754951387799
 21.6757403802845481 20.9129905694466736 16.3275560174055059
 21.6395840816146006 15.3286432256903691 16.3399925336429632
 13.8070813791677871 20.9571778848870558 16.2851221778615063
 21.7044872135575169  4.1700897483335782 16.3288790564422008
 21.7496025989381359  9.6663289916215476 16.3946495532103143
 13.8685942737111443  9.8231207926553505 16.3535961444035500
 13.7155498502883333 15.4032188927521929 16.2618319335963584
 13.8335212579519666  4.1267397292400458 16.4848244117235758
  9.8220199782635156  7.0546103658076493 16.4099240198386163
 15.7727900955667124 19.5016216253110386 14.9398352596958031
 11.8619104688152976  5.6363788396339105 17.5533008716505599
 19.6344618521959724 16.7527936544536082 17.7014660592651083
 17.7374618009905376 20.8506456121895276 18.9647926524511128
  5.9418052625111066  4.1734975541401109 19.0818790406582437
 17.7994683883924800  4.2996663080690070 19.2582149795611812
 17.6101165090918990  9.5283340435948229 18.6823823935905899
  9.8803335696474974 20.9229190472248625 19.0186042294377877
  9.9102136076148852 15.1877681855069913 18.9599827541944563
 14.0049138813804941 18.0217091757328873 19.2539257770476802
 21.7021752807111028  1.4552774992406901 19.0216975366889045
 21.6080983475866901 12.6383544192993433 18.9858844047577300
 21.6294646609071606  7.0639855089574075 18.9335611358727895
 21.6503558936928791 18.2203860973127902 19.0264661418582826
 13.8094649865002381  1.5117322949712402 18.9953241246925550
 13.6329571494208466  7.1424492044133734 19.0730022026035222
 13.5250253572108985 12.3658458236246034 19.3400855170916728
  5.8578011927843505 12.8548957494819636 18.7227712598189555
  6.1850341673264513 17.9840825469994776 19.1764349026327494
  6.0230449241902999  7.0941148366757298 19.1535536514296503
  5.9131589977398091  1.3913461185156135 19.0575376329838093
 21.6982156369999721 12.5533272030000536 10.8156001569999933
 14.5451782829433185  9.6413128692427730  0.9096554676970010
 11.8408957057600777  8.3894105558922227 15.0051049203193152
 11.8348763298273614 19.5002203874436049 14.9564309560201192
 11.8439520299467187 13.9071441792027599 14.9053427597900274
 19.7173753622800767 13.9770532453641110 14.8976968563397030
 19.7024195984432566 19.5314346693819587 14.9264602863050371
 19.7024979269319971  8.3905397513877062 14.9985598155446418
 19.6995698285530096  2.8248166074692311 14.9561945254977271
  3.9523430730696871  8.3851375907452859 14.9427064121337487
  3.9554725005395261 13.9527192606895927 14.9488258753715701
 17.6452458305692339 15.2287620284324117 19.4301482221138677
 14.2394738985721094  9.7378309032265395 19.0281625372959375
 13.8368839613714023 15.1224898533480090 18.8492014070585228
 21.6522770531348492  4.1849207656943062 19.0524393866606623
 19.6770525315891227  5.5592165248936167 17.5667020622700001
 19.7397842146491413 11.0142241159443355 17.5778272306500547
 19.7089272134371178  0.0230528011646270 17.6253671014332269
 11.8480503287810706 16.8133023089981037 17.7081042931280805
  9.8479979312123405  1.5693040081080656 18.9553030591516460
  9.8710665585139505  6.9479085414939723 19.0997127414786583
  9.7533376182160936 18.1843329647579033 19.0866342604684007
  9.7942065031987369 12.4968099934468384 19.1723329060272896
 18.0846250546706031 12.4950956282413799 19.0860842331014275
 17.4168273515599488 17.9492089447936074 19.1830992157135896
 17.7944105447430978  6.9639274167893719 19.2005534610750388
 17.7318054291972942  1.5250938628297332 18.9843588639732630
  1.9546728566197513  7.0343154776287102 19.0343512175823975
  2.0060124363777039 12.6064287648214712 19.0134625886503272
 11.8269378800528067  0.0443275443374081 17.6141057790312843
  2.0036670599092692 18.1939959064299437 19.0418619022901439
  2.0108116008097254  9.7463220850567467 19.0090756156816028
  2.0039005405292367  4.1742626621688688 19.0540274308185147
 10.0752425573617597  4.3561801395520741 19.2132870558518292
  9.7216353957319601  9.5289607597765151 18.8674160488349401
  1.9877306160575554 20.9106069128438463 19.0399396514530324
  1.9870530914890043 15.3436750081885727 19.0080250752620259
 21.7186173749723466  9.8131884300032439 19.2417065521216060
 21.6749040919773925 15.3743464729030617 19.0527636703997949
 21.6657518819549431 20.9264204437927290 19.0526073771800810
  5.7330335444867391  9.9032400887409953 19.1380752754223309
  5.8929612621041398 15.3222498785038415 19.6008940678857293
 13.6975591761275037  4.3240073705168207 19.3266251556947033
  5.9369193027306295 20.7910758199700680 18.9498629548034643
 13.7590239625845889 20.8546472013949327 18.9638396072542754
  1.9712668021981687  1.4369273945765573 19.0365291560503351
 21.6982156369999721 18.1325837370000720 10.8156001569999933
  0.0091790077512212  2.8301591283414815 18.3296821472963067
 19.7256482699999580 13.9481413360000008 12.2103998060000407
 23.6587719051393250 11.1622553571253906 15.0917779992976886
  7.8301579367577405 11.1455528175836651 14.9632558695589299
  7.8135142217977993  5.5392589268510610 15.0192449881700760
  7.8812496535190775  0.0268613966968996 15.0720657408392942
  7.9040600169346957 16.7702572157530518 14.9900016260591702
 15.7695723200949462  0.0149576197609918 15.0804846531250831
 15.8374448332439179 11.1703677024082992 14.9445289677611548
 15.7734308922483937  5.5300925461799073 15.0324413369662899
 15.7670736458661782 16.7826415984702955 14.9785937705260821
  3.9315864715037043  0.0245654326929852 15.0799975134077524
  3.9409234820105570  5.5638550289774136 15.1074934670065986
  3.8746489696528386 11.1574636020818811 14.9923277691322134
 11.8329085262966043  0.0013245918787301 15.0716864242743771
  3.8883735081697015 16.7658425994788409 15.0174583475718553
 11.8289300044543939 16.7992204608770876 15.0288624483466595
 19.7424326470592817  0.0084573524786091 15.0808380832040374
 11.8457831352540861 11.1573988474097980 14.9811173427479734
 11.8369113679514903  5.5320151381728184 14.9972553078278832
 19.7806578185714983  5.5511720445417527 14.9934497299715428
 23.6641226668371125 16.7537590693862981 15.0921332886539510
  0.0173281878193046  5.5666082970436142 15.0841471347436098
  0.0038605158991516  0.0048792917373224 15.0772795894627869
 19.7256482699999580 19.5273965409999306 12.2103998060000407
  0.0000000000000000 13.9481413360000008 12.2103998060000407
  0.0000000000000000 19.5273965409999306 12.2103998060000407
  7.8902602960000570  2.7896282670000101 12.2103998060000407
  7.8902602960000570  8.3688848019999824 12.2103998060000407
  7.8902602960000570 13.9481413360000008 12.2103998060000407
  7.8902602960000570 19.5273965409999306 12.2103998060000407
 15.7805205919999434  2.7896282670000101 12.2103998060000407
 15.7805205919999434  8.3688848019999824 12.2103998060000407
 15.7805205919999434 13.9481413360000008 12.2103998060000407
 19.7865869155643921 11.1570179780422141 15.0014446486791737
 15.7805205919999434 19.5273965409999306 12.2103998060000407
  3.9451301480000271  8.3688848019999824 12.2103998060000407
  3.9451301480000271 13.9481413360000008 12.2103998060000407
  3.9451301480000271 19.5273965409999306 12.2103998060000407
 11.8353900909999528  2.7896282670000101 12.2103998060000407
 11.8353900909999528  8.3688848019999824 12.2103998060000407
 11.8353900909999528 13.9481413360000008 12.2103998060000407
 11.8353900909999528 19.5273965409999306 12.2103998060000407
 19.7256482699999580  2.7896282670000101 12.2103998060000407
 19.7256482699999580  8.3688848019999824 12.2103998060000407
  3.9451301480000271  2.7896282670000101 12.2103998060000407
  0.0000000000000000  8.3688848019999824 12.2103998060000407
 19.7699469314091338 16.7723135991440806 15.0256370026470680
 19.8211745398901087  8.3309722257850964 17.7831340613825155
 19.7382521137957845 19.5977557554610371 18.2057275547108439
 19.8331989116448177 14.0615311787232908 17.9885215115971491
 23.6660032103662310 19.5667916162255473 18.3569721983186511
  7.8109991334929934  2.7551137484993458 18.1902135787181400
  7.9303339696477231 13.9574368479916924 17.6689965423515680
  7.7906601528462884  8.3434458295912197 17.7501424919591209
 15.7628466305460577  8.2719641646522177 17.6176067922128254
 15.7634460241393093  2.8038964019536827 18.1700272938116996
  7.9158557274101717 19.6416842193164349 17.9709104442196548
  3.7758338510861638 14.0096654003455789 17.8903613020619225
  3.9111117857296080 19.5621984115722540 18.2201434889348839
 11.7680255724194875  8.3031370276749250 17.6501170847924911
 11.8443607367247736  2.7743029096670617 18.0846250196342773
  3.9547687750283380  2.7827854834244290 18.3206745736116190
  3.8944565154175668  8.3423278219045116 18.1433181288276977
 15.7450094608438729 19.6258878580684843 18.0602998395550856
 15.7993189612555742 14.0309808883898821 17.6538506820535339
 23.6686783039363462  8.3887384961746303 18.2641131750682639
 23.6599244601756595 13.9943551963392583 18.3961275890830613
 19.7600710947765386  2.7821660855709505 18.1968924933610872
 11.8106390016871945 19.6099233039835070 18.0608876179694740
  0.0000000000000000  2.7896282670000101 12.2103998060000407
 11.8458987641907392 13.9995976915672102 17.6693775136608693
 21.7086202262723909  0.0229208993914982 17.9396817323297810
 13.8176716055136808 16.7606134160579963 17.7727890975009366
 14.0037090147775451 11.1535887797306188 17.6624504814011658
  5.7554076061255746 11.1524858103358202 17.6985794787061756
  5.8785407098645344 16.7982737693782589 17.6594454091920277
 13.7561275198396764  5.5431525345033847 17.7909922230441033
 13.7990064557472696  0.0423505449470687 17.9654259882999696
  5.8995389031438181 22.2980965458167617 17.9546132740236501
  5.8794887907745874  5.5406255971545084 18.0022994650713954
  9.8559683288405182  0.0639255016463769 17.9628780103727053
  9.7659291082105675  5.5555943717328002 17.6732878436077634
  9.8438525041989227 16.7605631157923192 17.7549910253658467
 17.8950290049628258 11.2166432459102037 17.7033940703420178
 17.7764189865794329 16.8216455643973788 17.6552101439564773
 17.8287827267014158  5.5437945511577169 17.6848842177137193
 17.7485914089196584  0.0370499352999154 17.9615986869820148
  1.9663645165823431  5.5961051854417656 17.9636725765694649
  1.9232519754400230 11.1780004478289143 17.9376370991712299
  1.9199925322044058 16.7872436642083116 17.9437740071048317
  1.9617559716563828  0.0187249027890187 17.9404500382210266
 21.7302282460124019 16.7914555099033684 17.9545047915549603
  9.7325711730344544 11.0913040016723574 17.6665956593401212
 21.7419847705213982  5.5766209418742330 17.9263166662829789
 21.7217397220509802 13.9648863801839731 15.0846394761819678
 21.7102057435125211 19.5340910680153463 15.0943855992756255
  1.9557388199638728 19.5317173670788691 15.0924356018443984
  1.9168983214742308 13.9606730640909689 15.0733340015145814
  9.8610044344989287 13.9557545439602713 14.9726191070493861
  9.8214761290217130  8.3538397702993397 14.9431210713764528
  9.8484737060553478  2.7528062996531788 15.0406972065924283
 17.7654128785706789 19.6051652517976152 15.0238115190781745
  5.8935816615311261  2.8016693739745770 15.1097763459209471
  5.8558070542688192 13.9543778251871977 15.0141522208891427
  5.8528038542843150  8.3289350837646730 15.0445375961066006
  1.9525415083482294  8.3663812291371986 15.0879561492052385
 17.7905086482452859  8.3836798009983706 14.9849298975849763
 17.7605769503940500  2.7405276867162383 15.0489191177567783
  9.8559396087428528 19.5691275583622541 15.0554832415981608
  5.8951902908385012 19.5884937120366480 15.0104509388919087
 13.8084169516676347  2.7563704724575717 15.0651931717078451
 13.8110987317978413 13.9767022118513218 14.9694149973393937
 13.8086170020679067  8.3238753697012040 14.9531752633697277
 21.7583831390925226  8.3691727561261935 15.0731905521910576
 21.7194907874116190  2.7939640764828613 15.0920856163550585
 13.8108200647724999 19.5665779329000884 15.0710591845658097
 17.8179038504959308 13.9575259087668737 15.0007717351631804
  1.9709703062827051  2.7996275419228325 15.0985791289408979
 21.6982156369999721 16.7377696039999648 12.2103998060000407
 21.6982156369999721 11.1585130689999925 12.2103998060000407
  1.9725650740000149  0.0000000000000000 12.2103998060000407
  1.9725650740000149  5.5792565349999723 12.2103998060000407
  1.9725650740000149 11.1585130689999925 12.2103998060000407
  1.9725650740000149 16.7377696039999648 12.2103998060000407
  9.8628241350000643  0.0000000000000000 12.2103998060000407
  9.8628241350000643  5.5792565349999723 12.2103998060000407
  9.8628241350000643 11.1585130689999925 12.2103998060000407
  9.8628241350000643 16.7377696039999648 12.2103998060000407
 17.7530837259999217  0.0000000000000000 12.2103998060000407
 17.7530837259999217 11.1585130689999925 12.2103998060000407
 17.7530837259999217 16.7377696039999648 12.2103998060000407
  5.9176950450000287  0.0000000000000000 12.2103998060000407
  5.9176950450000287  5.5792565349999723 12.2103998060000407
  5.9176950450000287 11.1585130689999925 12.2103998060000407
  5.9176950450000287 16.7377696039999648 12.2103998060000407
 13.8079546360000549  0.0000000000000000 12.2103998060000407
 13.8079546360000549  5.5792565349999723 12.2103998060000407
 13.8079546360000549 11.1585130689999925 12.2103998060000407
 13.8079546360000549 16.7377696039999648 12.2103998060000407
 21.6982156369999721  0.0000000000000000 12.2103998060000407
 21.6982156369999721  5.5792565349999723 12.2103998060000407
 21.7323873801875216 11.2468089259915018 17.9295577592728392
 17.7530837259999217  5.5792565349999723 12.2103998060000407
