Cu Au  O  C  H 
 1.0000000000000000
    17.8685883605840559    0.0000000000000000    0.0000000000000000
     8.9342941802920279   15.4746514500327255    0.0000000000000000
     0.0000000000000000    0.0000000000000000   20.0000000000000000
 Cu  Au  O   C   H  
  49   4   1   2   6
Selective dynamics
Cartesian
  0.0000000000000000  0.0000000000000000 10.0000000000000000   F   F   F
  2.5526554800834367  0.0000000000000000 10.0000000000000000   F   F   F
  5.1053109601668734  0.0000000000000000 10.0000000000000000   F   F   F
  7.6579664402503100  0.0000000000000000 10.0000000000000000   F   F   F
 10.2106219203337467  0.0000000000000000 10.0000000000000000   F   F   F
 12.7632774004171843  0.0000000000000000 10.0000000000000000   F   F   F
 15.3159328805006201  0.0000000000000000 10.0000000000000000   F   F   F
  1.2763277400417183  2.2106644928618180 10.0000000000000000   F   F   F
  3.8289832201251550  2.2106644928618180 10.0000000000000000   F   F   F
  6.3816387002085921  2.2106644928618180 10.0000000000000000   F   F   F
  8.9342941802920279  2.2106644928618180 10.0000000000000000   F   F   F
 11.4869496603754655  2.2106644928618180 10.0000000000000000   F   F   F
 14.0396051404589031  2.2106644928618180 10.0000000000000000   F   F   F
 16.5922606205423371  2.2106644928618180 10.0000000000000000   F   F   F
  2.5526554800834367  4.4213289857236360 10.0000000000000000   F   F   F
  5.1053109601668734  4.4213289857236360 10.0000000000000000   F   F   F
  7.6579664402503100  4.4213289857236360 10.0000000000000000   F   F   F
 10.2106219203337467  4.4213289857236360 10.0000000000000000   F   F   F
 12.7632774004171843  4.4213289857236360 10.0000000000000000   F   F   F
 15.3159328805006218  4.4213289857236360 10.0000000000000000   F   F   F
 17.8685883605840559  4.4213289857236360 10.0000000000000000   F   F   F
  3.8289832201251550  6.6319934785854535 10.0000000000000000   F   F   F
  6.3816387002085921  6.6319934785854535 10.0000000000000000   F   F   F
  8.9342941802920279  6.6319934785854535 10.0000000000000000   F   F   F
 11.4869496603754655  6.6319934785854535 10.0000000000000000   F   F   F
 14.0396051404589013  6.6319934785854535 10.0000000000000000   F   F   F
 16.5922606205423406  6.6319934785854535 10.0000000000000000   F   F   F
 19.1449161006257746  6.6319934785854535 10.0000000000000000   F   F   F
  5.1053109601668734  8.8426579714472719 10.0000000000000000   F   F   F
  7.6579664402503100  8.8426579714472719 10.0000000000000000   F   F   F
 10.2106219203337467  8.8426579714472719 10.0000000000000000   F   F   F
 12.7632774004171843  8.8426579714472719 10.0000000000000000   F   F   F
 15.3159328805006201  8.8426579714472719 10.0000000000000000   F   F   F
 17.8685883605840559  8.8426579714472719 10.0000000000000000   F   F   F
 20.4212438406674934  8.8426579714472719 10.0000000000000000   F   F   F
  6.3816387002085921 11.0533224643090904 10.0000000000000000   F   F   F
  8.9342941802920279 11.0533224643090904 10.0000000000000000   F   F   F
 11.4869496603754655 11.0533224643090904 10.0000000000000000   F   F   F
 14.0396051404589031 11.0533224643090904 10.0000000000000000   F   F   F
 16.5922606205423406 11.0533224643090904 10.0000000000000000   F   F   F
 19.1449161006257782 11.0533224643090904 10.0000000000000000   F   F   F
 21.6975715807092122 11.0533224643090904 10.0000000000000000   F   F   F
  7.6579664402503100 13.2639869571709070 10.0000000000000000   F   F   F
 10.2106219203337467 13.2639869571709070 10.0000000000000000   F   F   F
 12.7632774004171843 13.2639869571709070 10.0000000000000000   F   F   F
 15.3159328805006201 13.2639869571709070 10.0000000000000000   F   F   F
 17.8685883605840559 13.2639869571709070 10.0000000000000000   F   F   F
 20.4212438406674934 13.2639869571709070 10.0000000000000000   F   F   F
 22.9738993207509310 13.2639869571709070 10.0000000000000000   F   F   F
 11.4870000000000001  6.6319999999999997 14.0000000000000000   F   F   F
 12.7635000000000005  7.3689999999999998 12.0000000000000000   F   F   F
 10.2110000000000003  7.3689999999999998 12.0000000000000000   F   F   F
 11.4870000000000001  5.1580000000000004 12.0000000000000000   F   F   F
 15.1662825661163012  7.9518318056036570 12.0950160805160873   T   T   T
 14.2380722318774229  7.9969642941866521 13.1683711400776744   T   T   T
 14.4593338561320799  9.2692633664102750 13.9582304278315732   T   T   T
 13.2233543008571370  7.9539410476946122 12.7617206381387351   T   T   T
 14.3986218103970369  7.1180192886720777 13.7991525365361909   T   T   T
 13.7698051275008311  9.3265741374468778 14.8051664277249344   T   T   T
 15.4863868618917451  9.3165379842299050 14.3349486433057436   T   T   T
 14.3118528807093686 10.1501566054944856 13.3246802773114350   T   T   T
 14.9997171332401038  8.7252380318019505 11.5294578820532969   T   T   T
