Sr Ti  O Au  C  O  C  O  C  O  C  O  C  O  C  O  C  O  C  O  C  O  C  O  C  O  C  O  C  O  C  O  C  O  C  O  C  O  C  O  C  O  C  O  C  O  C  O  C  O  C  O  C  O  C  O  C  O  C  O  C  O  C  O  C  O  C  O  C  O  C  O  C  O  C  O  C  O  C  O  C  O  C  O 
 1.0000000000000000
    23.6707801818999997    0.0000000000000000    0.0000000000000000
     0.0000000000000000   22.3170261383000010    0.0000000000000000
     0.0000000000000000    0.0000000000000000   30.0000000000000000
 Sr  Ti  O   Au  C   O   C   O   C   O   C   O   C   O   C   O   C   O   C   O   C   O   C   O   C   O   C   O   C   O   C   O   C   O   C   O   C   O   C   O   C   O   C   O   C   O   C   O   C   O   C   O   C   O   C   O   C   O   C   O   C   O   C   O   C   O   C   O   C   O   C   O   C   O   C   O   C   O   C   O   C   O   C   O  
  24  24  72  50   1   1   1   1   1   1   1   1   1   1   1   1   1   1   1   1   1   1   1   1   1   1   1   1   1   1   1   1   1   1   1   1   1   1   1   1   1   1   1   1   1   1   1   1   1   1   1   1   1   1   1   1   1   1   1   1   1   1   1   1   1   1   1   1   1   1   1   1   1   1   1   1   1   1   1   1   1   1   1   1
Selective dynamics
Cartesian
  0.0091790077512212  2.8301591283414815 18.3296821472963067   F   F   F
 23.6599244601756595 13.9943551963392583 18.3961275890830613   F   F   F
 23.6686783039363462  8.3887384961746303 18.2641131750682639   F   F   F
 15.7993189612555742 14.0309808883898821 17.6538506820535339   F   F   F
 15.7450094608438729 19.6258878580684843 18.0602998395550856   F   F   F
  3.8944565154175668  8.3423278219045116 18.1433181288276977   F   F   F
  3.9547687750283380  2.7827854834244290 18.3206745736116190   F   F   F
 11.8443607367247736  2.7743029096670617 18.0846250196342773   F   F   F
 11.7680255724194875  8.3031370276749250 17.6501170847924911   F   F   F
  3.9111117857296080 19.5621984115722540 18.2201434889348839   F   F   F
  3.7758338510861638 14.0096654003455789 17.8903613020619225   F   F   F
  7.9158557274101717 19.6416842193164349 17.9709104442196548   F   F   F
 15.7634460241393093  2.8038964019536827 18.1700272938116996   F   F   F
 15.7628466305460577  8.2719641646522177 17.6176067922128254   F   F   F
  7.7906601528462884  8.3434458295912197 17.7501424919591209   F   F   F
  7.9303339696477231 13.9574368479916924 17.6689965423515680   F   F   F
  7.8109991334929934  2.7551137484993458 18.1902135787181400   F   F   F
 23.6660032103662310 19.5667916162255473 18.3569721983186511   F   F   F
 19.8331989116448177 14.0615311787232908 17.9885215115971491   F   F   F
 19.7382521137957845 19.5977557554610371 18.2057275547108439   F   F   F
 19.7600710947765386  2.7821660855709505 18.1968924933610872   F   F   F
 19.8211745398901087  8.3309722257850964 17.7831340613825155   F   F   F
 11.8106390016871945 19.6099233039835070 18.0608876179694740   F   F   F
 11.8458987641907392 13.9995976915672102 17.6693775136608693   F   F   F
  1.9617559716563828  0.0187249027890187 17.9404500382210266   F   F   F
  1.9199925322044058 16.7872436642083116 17.9437740071048317   F   F   F
  1.9232519754400230 11.1780004478289143 17.9376370991712299   F   F   F
  1.9663645165823431  5.5961051854417656 17.9636725765694649   F   F   F
 17.7485914089196584  0.0370499352999154 17.9615986869820148   F   F   F
 17.8287827267014158  5.5437945511577169 17.6848842177137193   F   F   F
 17.7764189865794329 16.8216455643973788 17.6552101439564773   F   F   F
 17.8950290049628258 11.2166432459102037 17.7033940703420178   F   F   F
  9.7325711730344544 11.0913040016723574 17.6665956593401212   F   F   F
  9.8438525041989227 16.7605631157923192 17.7549910253658467   F   F   F
  9.7659291082105675  5.5555943717328002 17.6732878436077634   F   F   F
  9.8559683288405182  0.0639255016463769 17.9628780103727053   F   F   F
  5.8794887907745874  5.5406255971545084 18.0022994650713954   F   F   F
  5.8995389031438181 22.2980965458167617 17.9546132740236501   F   F   F
 13.7990064557472696  0.0423505449470687 17.9654259882999696   F   F   F
 13.7561275198396764  5.5431525345033847 17.7909922230441033   F   F   F
  5.8785407098645344 16.7982737693782589 17.6594454091920277   F   F   F
  5.7554076061255746 11.1524858103358202 17.6985794787061756   F   F   F
 14.0037090147775451 11.1535887797306188 17.6624504814011658   F   F   F
 13.8176716055136808 16.7606134160579963 17.7727890975009366   F   F   F
 21.7419847705213982  5.5766209418742330 17.9263166662829789   F   F   F
 21.7086202262723909  0.0229208993914982 17.9396817323297810   F   F   F
 21.7302282460124019 16.7914555099033684 17.9545047915549603   F   F   F
 21.7323873801875216 11.2468089259915018 17.9295577592728392   F   F   F
 23.6296730210497969 11.1707832422260420 17.6727555773283775   F   F   F
 23.6610497917607354 16.7805087013529537 17.6323909563618137   F   F   F
  7.9067853106199717  5.5425427239031801 17.6347289837890067   F   F   F
  7.8925525725787260  0.0199215559159502 17.6161768191841190   F   F   F
 23.6677129920246756 22.3084278502528868 17.6183861063425482   F   F   F
  0.0040520978405133  5.5810708503142239 17.6381149666008668   F   F   F
  7.8921482524329774 11.1878400230581967 17.6220576711116550   F   F   F
  7.9335041916732880 16.5800828630775037 17.5964573395791426   F   F   F
 15.7215474510524551  5.6321181450288611 17.7430281011572468   F   F   F
 15.7679065651081931  0.0294221899088331 17.6304186580716085   F   F   F
 15.7439849959729656 16.6044627853665538 17.5274754159945019   F   F   F
 15.8120743773853114 11.4356114648333911 17.6321930231380861   F   F   F
  3.9495861701324877 22.3081982616895864 17.6194774291233998   F   F   F
  3.9884476007211962  5.6614669104379090 17.6871818461118053   F   F   F
  4.0279541794086109 16.7485375634882203 17.6810723463754016   F   F   F
  3.9268609440187521 11.1957766527206299 17.5263648530675908   F   F   F
 11.8558189323881056 10.9949632069053855 17.8774798833992605   F   F   F
 11.8619104688152976  5.6363788396339105 17.5533008716505599   F   F   F
 11.8269378800528067  0.0443275443374081 17.6141057790312843   F   F   F
 19.6344618521959724 16.7527936544536082 17.7014660592651083   F   F   F
 19.6770525315891227  5.5592165248936167 17.5667020622700001   F   F   F
 19.7397842146491413 11.0142241159443355 17.5778272306500547   F   F   F
 19.7089272134371178  0.0230528011646270 17.6253671014332269   F   F   F
 11.8480503287810706 16.8133023089981037 17.7081042931280805   F   F   F
  9.8479979312123405  1.5693040081080656 18.9553030591516460   F   F   F
  9.8710665585139505  6.9479085414939723 19.0997127414786583   F   F   F
  9.7533376182160936 18.1843329647579033 19.0866342604684007   F   F   F
  9.7942065031987369 12.4968099934468384 19.1723329060272896   F   F   F
 18.0846250546706031 12.4950956282413799 19.0860842331014275   F   F   F
 17.4168273515599488 17.9492089447936074 19.1830992157135896   F   F   F
 17.7944105447430978  6.9639274167893719 19.2005534610750388   F   F   F
 17.7318054291972942  1.5250938628297332 18.9843588639732630   F   F   F
  1.9546728566197513  7.0343154776287102 19.0343512175823975   F   F   F
  2.0060124363777039 12.6064287648214712 19.0134625886503272   F   F   F
  2.0036670599092692 18.1939959064299437 19.0418619022901439   F   F   F
  1.9712668021981687  1.4369273945765573 19.0365291560503351   F   F   F
  2.0108116008097254  9.7463220850567467 19.0090756156816028   F   F   F
  2.0039005405292367  4.1742626621688688 19.0540274308185147   F   F   F
 10.0752425573617597  4.3561801395520741 19.2132870558518292   F   F   F
  9.7216353957319601  9.5289607597765151 18.8674160488349401   F   F   F
  1.9877306160575554 20.9106069128438463 19.0399396514530324   F   F   F
  1.9870530914890043 15.3436750081885727 19.0080250752620259   F   F   F
 21.7186173749723466  9.8131884300032439 19.2417065521216060   F   F   F
 21.6749040919773925 15.3743464729030617 19.0527636703997949   F   F   F
 21.6657518819549431 20.9264204437927290 19.0526073771800810   F   F   F
  5.7330335444867391  9.9032400887409953 19.1380752754223309   F   F   F
  5.8929612621041398 15.3222498785038415 19.6008940678857293   F   F   F
 13.6975591761275037  4.3240073705168207 19.3266251556947033   F   F   F
  5.9369193027306295 20.7910758199700680 18.9498629548034643   F   F   F
 13.7590239625845889 20.8546472013949327 18.9638396072542754   F   F   F
 21.6522770531348492  4.1849207656943062 19.0524393866606623   F   F   F
 13.8368839613714023 15.1224898533480090 18.8492014070585228   F   F   F
 14.2394738985721094  9.7378309032265395 19.0281625372959375   F   F   F
 17.6452458305692339 15.2287620284324117 19.4301482221138677   F   F   F
 17.7374618009905376 20.8506456121895276 18.9647926524511128   F   F   F
  5.9418052625111066  4.1734975541401109 19.0818790406582437   F   F   F
 17.7994683883924800  4.2996663080690070 19.2582149795611812   F   F   F
 17.6101165090918990  9.5283340435948229 18.6823823935905899   F   F   F
  9.8803335696474974 20.9229190472248625 19.0186042294377877   F   F   F
  9.9102136076148852 15.1877681855069913 18.9599827541944563   F   F   F
 14.0049138813804941 18.0217091757328873 19.2539257770476802   F   F   F
 21.7021752807111028  1.4552774992406901 19.0216975366889045   F   F   F
 21.6080983475866901 12.6383544192993433 18.9858844047577300   F   F   F
 21.6294646609071606  7.0639855089574075 18.9335611358727895   F   F   F
 21.6503558936928791 18.2203860973127902 19.0264661418582826   F   F   F
 13.8094649865002381  1.5117322949712402 18.9953241246925550   F   F   F
 13.6329571494208466  7.1424492044133734 19.0730022026035222   F   F   F
 13.5250253572108985 12.3658458236246034 19.3400855170916728   F   F   F
  5.8578011927843505 12.8548957494819636 18.7227712598189555   F   F   F
  6.1850341673264513 17.9840825469994776 19.1764349026327494   F   F   F
  6.0230449241902999  7.0941148366757298 19.1535536514296503   F   F   F
  5.9131589977398091  1.3913461185156135 19.0575376329838093   F   F   F
 16.5250643770601151 16.6128185705665281 20.4348832524687687   F   F   F
 15.1184640733150939  6.8471381370989031 20.5087171064785352   F   F   F
 11.0502592623058877 13.1136888068179829 20.7879730620460279   F   F   F
 13.2095879187136163  4.9253952766695193 21.2309033659948625   F   F   F
  7.1219983358281631 12.1840893164583353 23.0436291883752915   F   F   F
  9.3951084950889943 17.9549673764956097 21.0595026061044273   F   F   F
 10.8029737794672744  5.7939626924245822 20.4560364084562067   F   F   F
  9.0511778836974202  7.0504289729995682 22.1950961694806708   F   F   F
 10.5605120863726558  8.9315248318045306 23.5031209609417893   F   F   F
  8.4826517823515530 11.8490726195085454 20.6616207335102509   F   F   F
 11.5270571584944559 16.4864325474820781 21.9970346824992404   F   F   F
 14.0630428500003610 17.4031784304289232 21.1829091377953560   F   F   F
 15.2312220266582710 12.6514573288258223 23.8054864353431590   F   F   F
 17.2795346547679038 13.5216257481695123 20.6315708814029648   F   F   F
 17.9222046423667791  9.4393850926887524 20.6229504252782476   F   F   F
 13.4742734076568453 11.1589662440314257 25.2324932278453424   F   F   F
 11.2231925357326947 15.3658253299607441 24.6747551640864167   F   F   F
 12.8432460250051932 10.4760918403483920 22.5313324597318072   F   F   F
 12.1964891997437750 10.7430630256353457 19.9864325057228989   F   F   F
 14.3895170712961988  6.7610608568530424 23.1635008275414904   F   F   F
  7.1424283100507502 14.9315610628467343 22.6020088318892221   F   F   F
  6.1233447776812193 10.6692180363272531 20.9925139771374099   F   F   F
 12.9890943169338371  8.4351475503246736 24.7511869509606512   F   F   F
 13.7329622632456729 16.1071081847273234 23.5621547383579895   F   F   F
 12.5194595250298484 13.4159426732378080 22.9957268254262424   F   F   F
  7.0680554468234114 16.7197173803529680 20.4965496446097148   F   F   F
 17.5303903954877001  5.6808305001846913 20.7094644733966220   F   F   F
 14.7640319955218597 12.3492133002238553 21.0352883007554041   F   F   F
 15.3247640723077918  9.6170444010231524 23.7001069175443675   F   F   F
  8.9001967167212328 13.8774991070741915 24.3856044595863075   F   F   F
 11.0864361907202618 10.0205361684870109 25.9778112439548181   F   F   F
 20.5569588974900768  9.7353134724719617 20.8473428875277449   F   F   F
 10.2891358842755096 11.6397546019400551 22.9317635074941748   F   F   F
 13.2632798997075536 14.7367583114847793 20.7689085166713063   F   F   F
 13.5678356868174657 14.0268663617655598 25.4519597579728014   F   F   F
 15.0848162301057140  9.5873836142325732 20.9394911649222308   F   F   F
 17.0340251305772412 11.4111739546028588 22.2868189122462645   F   F   F
  6.1936128750545176 13.4768163089452653 20.6089781175153917   F   F   F
 18.9740652595051067  9.5144900026240897 23.0245896171493278   F   F   F
 16.8856287838915726  7.6415331338941650 22.4721471824793575   F   F   F
  9.1431425396999870 16.5898099293765853 23.3786802626818933   F   F   F
 11.7000642105559400  6.4108357648024219 23.0344665500159316   F   F   F
  7.8841587144192902  9.5111496614592053 22.7955013014191081   F   F   F
 11.0897426413571178 12.7237264507811094 25.5363492687169717   F   F   F
  8.7172123991522259 11.0999773096244478 25.0593618653180279   F   F   F
 10.0270951996431101  9.4105945500041486 20.8821205043478706   F   F   F
 15.7667895870296384 14.8867975198019842 22.2632750952329985   F   F   F
  6.8697307068373501  7.8410002808536268 20.8608509372043756   F   F   F
  9.2518345655236889 15.1104488252003399 20.8861304600564921   F   F   F
 12.4788164650575890  8.0449268218902628 20.9099616811480260   F   F   F
 13.8410266667886734 11.7514720932224250 30.6920416056361773   T   T   T
 13.2581905590849871 11.4105629748297837 29.8236620546600122   T   T   T
 11.6403130941678015  6.7830925464853662 29.2535241162781077   T   T   T
 11.3321284055107405  7.7951739439124221 28.9523373923684204   T   T   T
  7.6737631352982474  3.3553950474963461 20.9856154283553593   T   T   T
  8.6687908220778240  3.3465992406941591 21.4544891174495369   T   T   T
 14.9652267294892916 19.0049851104130880 26.1781268254364363   T   T   T
 15.2488849628151968 19.6423765792732148 25.3276739330956815   T   T   T
  8.0157052580555792 18.9115144487693954 22.3979138120761014   T   T   T
  8.4037588737850353 19.4603741743982823 23.2686418941441353   T   T   T
 11.9506520921809276 11.7592633657100034 29.6300105176959221   T   T   T
 11.1264550708057968 11.4810023423328929 30.3032638673537491   T   T   T
 12.5543411017940052 13.9910298692628245 29.6192809538229511   T   T   T
 11.5178741120198591 13.7629530687165200 29.9086201184050751   T   T   T
  9.0176870817312249 18.0861892144010952 26.6690141498528206   T   T   T
  8.5797021789857322 17.4622101004890879 25.8760328825024466   T   T   T
 22.5364401327741959  7.3367683122417562 20.4730731707160416   T   T   T
 21.7208023397796595  7.6145477548164937 21.1568666862760182   T   T   T
  7.4422901980634251  6.9961656935735883 26.9339687262999590   T   T   T
  6.9110722306601540  6.9293663613068315 25.9730601352692361   T   T   T
 17.0546088437573360  5.8381337331996317 27.4858367773915830   T   T   T
 16.6815520766129453  4.9977237406915114 26.8820655516940690   T   T   T
 20.2032632808005914  4.3384814860275558 20.9872954779681287   T   T   T
 20.2510351358713550  5.1887298977206777 21.6835680454849182   T   T   T
 10.4583977560408403  9.8395290708018539 29.5097541299936985   T   T   T
 11.3293703543615241 10.2820826818481503 30.0152766659150956   T   T   T
  4.5939980281314430 12.4217723316855011 24.2557816039532028   T   T   T
  4.8021400008464425 11.7607480583227293 25.1100203464716714   T   T   T
 16.5123369398055004  9.5700392632768274 29.0683978395329206   T   T   T
 17.2576277232746804 10.1879772363100631 29.5905992466159304   T   T   T
 13.8115376987499143 13.2260538654260635 30.1651394012200740   T   T   T
 12.7738842244440356 12.9086137969920678 29.9848422292689918   T   T   T
 20.3327132320170598 10.6388574817816810 26.3470688403809277   T   T   T
 20.9919087794784112  9.8968654898947666 26.8213146776666314   T   T   T
 19.9114477162523116 17.2590492913631124 25.3114803366300123   T   T   T
 19.5599565258618000 16.2613229358497193 25.6131358729488880   T   T   T
  6.0638817520475214  6.2806137380207989 22.3898960823488977   T   T   T
  4.9895443762550986  6.3868582627477508 22.6008731046546387   T   T   T
 13.3823493616237901  5.0390408901077164 26.9770004856769390   T   T   T
 13.5125579542847447  3.9962209540473763 27.3019194037970792   T   T   T
 20.1905375576496020 14.4277096768020172 25.8289341617330805   T   T   T
 20.3919561250587407 14.5549697778353959 26.9028221574699842   T   T   T
 15.3928104784472701 16.8770302522144426 27.8869212662724593   T   T   T
 14.5186637181582956 17.3556947703040549 28.3524829921459798   T   T   T
 11.0174425645870500 15.4354737938666560 29.0553763108644389   T   T   T
 10.9113028290879654 16.3600263125232566 28.4689148911666692   T   T   T
  6.4386211254596475 10.4063921565032640 26.3096421686485371   T   T   T
  5.8959064903653102 10.5244879793873451 27.2591231855581704   T   T   T
  4.4175578046116772 10.4508987409959513 25.0610811438967467   T   T   T
  5.2616674201810127  9.7777607012367156 24.8504531867484069   T   T   T
  4.3934738892812337 10.1352731531279190 21.2688161449443207   T   T   T
  3.4113590620686196 10.4593945314865664 20.8941218718895705   T   T   T
  7.4695019850902522 13.5512317345435633 28.1161519983678758   T   T   T
  8.4086433356852766 13.1518250524361342 28.5266246842928837   T   T   T
 17.6392135992495476  3.7274701397078012 22.4643764608805370   T   T   T
 18.1699982430320723  2.8106330008252787 22.1682728933735476   T   T   T
 20.6213533748542943  5.7240435762861441 22.8328338887659257   T   T   T
 21.3442148689370832  6.5489476733476772 22.9165267261147427   T   T   T
  7.6244769617226495 15.6907685219008144 27.7210937145338221   T   T   T
  7.7007025449843463 14.7665702815993782 27.1294457845280235   T   T   T
  5.5450254358814064 15.8019455748492597 23.7004217442087217   T   T   T
  5.0721003138305996 16.0635670333242153 22.7423528315522958   T   T   T
 13.2973900671160870  1.9130210047861755 22.3496272598403323   T   T   T
 12.9564088556007420  1.9382707853220804 21.3041157764139584   T   T   T
 17.9367524984890210 17.3340507734409819 25.9658658461484819   T   T   T
 18.6400254276303343 17.0838278833399215 26.7738235754923295   T   T   T
 10.9780721934124728  2.3573235762254168 22.6922139090248791   T   T   T
 10.4245761748993093  2.7863981132763023 23.5404692945925973   T   T   T
 15.3910540140050607  6.1192379848098666 28.7704740396145802   T   T   T
 14.5008575998470324  6.0410312973484563 28.1290427819910533   T   T   T
 16.4822985939321143  7.2401709630328117 29.2587008723787250   T   T   T
 15.7300976037489839  7.2744906612194065 28.4568181947482017   T   T   T
  7.9379189785260973  9.8258271472517400 28.5387075473355019   T   T   T
  7.4220198947462963  9.2858657948777008 27.7310629019019039   T   T   T
  9.6987321316282902 13.6597986998485741 28.7065651432597697   T   T   T
  9.4478803397516398 13.0667660696998293 29.5984091195757699   T   T   T
 20.7369033347766134  6.7260034142054677 24.4126344668268338   T   T   T
 20.9857412134729344  7.5996823902687174 25.0329285558773300   T   T   T
 13.5057769616917174  9.8896152878360155 29.4702473145579589   T   T   T
 13.5084952762156814  9.3358787979096736 30.4207043154213359   T   T   T
