Sr Ti  O Au  C  O  C  O  C  O  C  O  C  O  C  O  C  O  C  O  C  O  C  O  C  O  C  O  C  O  C  O  C  O  C  O  C  O  C  O  C  O  C  O  C  O  C  O  C  O  C  O  C  O  C  O  C  O  C  O  C  O  C  O  C  O  C  O  C  O  C  O  C  O  C  O  C  O  C  O  C  O  C  O  C  O  C  O  C  O  C  O  C  O  C  O  C  O  C  O  C  O  C  O  C  O  C  O  C  O  C  O  C  O  C  O  C  O  C  O  C  O  C  O 
 1.0000000000000000
    23.6707801818999997    0.0000000000000000    0.0000000000000000
     0.0000000000000000   22.3170261383000010    0.0000000000000000
     0.0000000000000000    0.0000000000000000   30.0000000000000000
 Sr  Ti  O   Au  C   O   C   O   C   O   C   O   C   O   C   O   C   O   C   O   C   O   C   O   C   O   C   O   C   O   C   O   C   O   C   O   C   O   C   O   C   O   C   O   C   O   C   O   C   O   C   O   C   O   C   O   C   O   C   O   C   O   C   O   C   O   C   O   C   O   C   O   C   O   C   O   C   O   C   O   C   O   C   O   C   O   C   O   C   O   C   O   C   O   C   O   C   O   C   O   C   O   C   O   C   O   C   O   C   O   C   O   C   O   C   O   C   O   C   O   C   O   C   O  
  24  24  72  50   1   1   1   1   1   1   1   1   1   1   1   1   1   1   1   1   1   1   1   1   1   1   1   1   1   1   1   1   1   1   1   1   1   1   1   1   1   1   1   1   1   1   1   1   1   1   1   1   1   1   1   1   1   1   1   1   1   1   1   1   1   1   1   1   1   1   1   1   1   1   1   1   1   1   1   1   1   1   1   1   1   1   1   1   1   1   1   1   1   1   1   1   1   1   1   1   1   1   1   1   1   1   1   1   1   1   1   1   1   1   1   1   1   1   1   1   1   1   1   1
Selective dynamics
Cartesian
  0.0091790077512212  2.8301591283414815 18.3296821472963067   F   F   F
 23.6599244601756595 13.9943551963392583 18.3961275890830613   F   F   F
 23.6686783039363462  8.3887384961746303 18.2641131750682639   F   F   F
 15.7993189612555742 14.0309808883898821 17.6538506820535339   F   F   F
 15.7450094608438729 19.6258878580684843 18.0602998395550856   F   F   F
  3.8944565154175668  8.3423278219045116 18.1433181288276977   F   F   F
  3.9547687750283380  2.7827854834244290 18.3206745736116190   F   F   F
 11.8443607367247736  2.7743029096670617 18.0846250196342773   F   F   F
 11.7680255724194875  8.3031370276749250 17.6501170847924911   F   F   F
  3.9111117857296080 19.5621984115722540 18.2201434889348839   F   F   F
  3.7758338510861638 14.0096654003455789 17.8903613020619225   F   F   F
  7.9158557274101717 19.6416842193164349 17.9709104442196548   F   F   F
 15.7634460241393093  2.8038964019536827 18.1700272938116996   F   F   F
 15.7628466305460577  8.2719641646522177 17.6176067922128254   F   F   F
  7.7906601528462884  8.3434458295912197 17.7501424919591209   F   F   F
  7.9303339696477231 13.9574368479916924 17.6689965423515680   F   F   F
  7.8109991334929934  2.7551137484993458 18.1902135787181400   F   F   F
 23.6660032103662310 19.5667916162255473 18.3569721983186511   F   F   F
 19.8331989116448177 14.0615311787232908 17.9885215115971491   F   F   F
 19.7382521137957845 19.5977557554610371 18.2057275547108439   F   F   F
 19.7600710947765386  2.7821660855709505 18.1968924933610872   F   F   F
 19.8211745398901087  8.3309722257850964 17.7831340613825155   F   F   F
 11.8106390016871945 19.6099233039835070 18.0608876179694740   F   F   F
 11.8458987641907392 13.9995976915672102 17.6693775136608693   F   F   F
  1.9617559716563828  0.0187249027890187 17.9404500382210266   F   F   F
  1.9199925322044058 16.7872436642083116 17.9437740071048317   F   F   F
  1.9232519754400230 11.1780004478289143 17.9376370991712299   F   F   F
  1.9663645165823431  5.5961051854417656 17.9636725765694649   F   F   F
 17.7485914089196584  0.0370499352999154 17.9615986869820148   F   F   F
 17.8287827267014158  5.5437945511577169 17.6848842177137193   F   F   F
 17.7764189865794329 16.8216455643973788 17.6552101439564773   F   F   F
 17.8950290049628258 11.2166432459102037 17.7033940703420178   F   F   F
  9.7325711730344544 11.0913040016723574 17.6665956593401212   F   F   F
  9.8438525041989227 16.7605631157923192 17.7549910253658467   F   F   F
  9.7659291082105675  5.5555943717328002 17.6732878436077634   F   F   F
  9.8559683288405182  0.0639255016463769 17.9628780103727053   F   F   F
  5.8794887907745874  5.5406255971545084 18.0022994650713954   F   F   F
  5.8995389031438181 22.2980965458167617 17.9546132740236501   F   F   F
 13.7990064557472696  0.0423505449470687 17.9654259882999696   F   F   F
 13.7561275198396764  5.5431525345033847 17.7909922230441033   F   F   F
  5.8785407098645344 16.7982737693782589 17.6594454091920277   F   F   F
  5.7554076061255746 11.1524858103358202 17.6985794787061756   F   F   F
 14.0037090147775451 11.1535887797306188 17.6624504814011658   F   F   F
 13.8176716055136808 16.7606134160579963 17.7727890975009366   F   F   F
 21.7419847705213982  5.5766209418742330 17.9263166662829789   F   F   F
 21.7086202262723909  0.0229208993914982 17.9396817323297810   F   F   F
 21.7302282460124019 16.7914555099033684 17.9545047915549603   F   F   F
 21.7323873801875216 11.2468089259915018 17.9295577592728392   F   F   F
 23.6296730210497969 11.1707832422260420 17.6727555773283775   F   F   F
 23.6610497917607354 16.7805087013529537 17.6323909563618137   F   F   F
  7.9067853106199717  5.5425427239031801 17.6347289837890067   F   F   F
  7.8925525725787260  0.0199215559159502 17.6161768191841190   F   F   F
 23.6677129920246756 22.3084278502528868 17.6183861063425482   F   F   F
  0.0040520978405133  5.5810708503142239 17.6381149666008668   F   F   F
  7.8921482524329774 11.1878400230581967 17.6220576711116550   F   F   F
  7.9335041916732880 16.5800828630775037 17.5964573395791426   F   F   F
 15.7215474510524551  5.6321181450288611 17.7430281011572468   F   F   F
 15.7679065651081931  0.0294221899088331 17.6304186580716085   F   F   F
 15.7439849959729656 16.6044627853665538 17.5274754159945019   F   F   F
 15.8120743773853114 11.4356114648333911 17.6321930231380861   F   F   F
  3.9495861701324877 22.3081982616895864 17.6194774291233998   F   F   F
  3.9884476007211962  5.6614669104379090 17.6871818461118053   F   F   F
  4.0279541794086109 16.7485375634882203 17.6810723463754016   F   F   F
  3.9268609440187521 11.1957766527206299 17.5263648530675908   F   F   F
 11.8558189323881056 10.9949632069053855 17.8774798833992605   F   F   F
 11.8619104688152976  5.6363788396339105 17.5533008716505599   F   F   F
 11.8269378800528067  0.0443275443374081 17.6141057790312843   F   F   F
 19.6344618521959724 16.7527936544536082 17.7014660592651083   F   F   F
 19.6770525315891227  5.5592165248936167 17.5667020622700001   F   F   F
 19.7397842146491413 11.0142241159443355 17.5778272306500547   F   F   F
 19.7089272134371178  0.0230528011646270 17.6253671014332269   F   F   F
 11.8480503287810706 16.8133023089981037 17.7081042931280805   F   F   F
  9.8479979312123405  1.5693040081080656 18.9553030591516460   F   F   F
  9.8710665585139505  6.9479085414939723 19.0997127414786583   F   F   F
  9.7533376182160936 18.1843329647579033 19.0866342604684007   F   F   F
  9.7942065031987369 12.4968099934468384 19.1723329060272896   F   F   F
 18.0846250546706031 12.4950956282413799 19.0860842331014275   F   F   F
 17.4168273515599488 17.9492089447936074 19.1830992157135896   F   F   F
 17.7944105447430978  6.9639274167893719 19.2005534610750388   F   F   F
 17.7318054291972942  1.5250938628297332 18.9843588639732630   F   F   F
  1.9546728566197513  7.0343154776287102 19.0343512175823975   F   F   F
  2.0060124363777039 12.6064287648214712 19.0134625886503272   F   F   F
  2.0036670599092692 18.1939959064299437 19.0418619022901439   F   F   F
  1.9712668021981687  1.4369273945765573 19.0365291560503351   F   F   F
  2.0108116008097254  9.7463220850567467 19.0090756156816028   F   F   F
  2.0039005405292367  4.1742626621688688 19.0540274308185147   F   F   F
 10.0752425573617597  4.3561801395520741 19.2132870558518292   F   F   F
  9.7216353957319601  9.5289607597765151 18.8674160488349401   F   F   F
  1.9877306160575554 20.9106069128438463 19.0399396514530324   F   F   F
  1.9870530914890043 15.3436750081885727 19.0080250752620259   F   F   F
 21.7186173749723466  9.8131884300032439 19.2417065521216060   F   F   F
 21.6749040919773925 15.3743464729030617 19.0527636703997949   F   F   F
 21.6657518819549431 20.9264204437927290 19.0526073771800810   F   F   F
  5.7330335444867391  9.9032400887409953 19.1380752754223309   F   F   F
  5.8929612621041398 15.3222498785038415 19.6008940678857293   F   F   F
 13.6975591761275037  4.3240073705168207 19.3266251556947033   F   F   F
  5.9369193027306295 20.7910758199700680 18.9498629548034643   F   F   F
 13.7590239625845889 20.8546472013949327 18.9638396072542754   F   F   F
 21.6522770531348492  4.1849207656943062 19.0524393866606623   F   F   F
 13.8368839613714023 15.1224898533480090 18.8492014070585228   F   F   F
 14.2394738985721094  9.7378309032265395 19.0281625372959375   F   F   F
 17.6452458305692339 15.2287620284324117 19.4301482221138677   F   F   F
 17.7374618009905376 20.8506456121895276 18.9647926524511128   F   F   F
  5.9418052625111066  4.1734975541401109 19.0818790406582437   F   F   F
 17.7994683883924800  4.2996663080690070 19.2582149795611812   F   F   F
 17.6101165090918990  9.5283340435948229 18.6823823935905899   F   F   F
  9.8803335696474974 20.9229190472248625 19.0186042294377877   F   F   F
  9.9102136076148852 15.1877681855069913 18.9599827541944563   F   F   F
 14.0049138813804941 18.0217091757328873 19.2539257770476802   F   F   F
 21.7021752807111028  1.4552774992406901 19.0216975366889045   F   F   F
 21.6080983475866901 12.6383544192993433 18.9858844047577300   F   F   F
 21.6294646609071606  7.0639855089574075 18.9335611358727895   F   F   F
 21.6503558936928791 18.2203860973127902 19.0264661418582826   F   F   F
 13.8094649865002381  1.5117322949712402 18.9953241246925550   F   F   F
 13.6329571494208466  7.1424492044133734 19.0730022026035222   F   F   F
 13.5250253572108985 12.3658458236246034 19.3400855170916728   F   F   F
  5.8578011927843505 12.8548957494819636 18.7227712598189555   F   F   F
  6.1850341673264513 17.9840825469994776 19.1764349026327494   F   F   F
  6.0230449241902999  7.0941148366757298 19.1535536514296503   F   F   F
  5.9131589977398091  1.3913461185156135 19.0575376329838093   F   F   F
 16.5250643770601151 16.6128185705665281 20.4348832524687687   F   F   F
 15.1184640733150939  6.8471381370989031 20.5087171064785352   F   F   F
 11.0502592623058877 13.1136888068179829 20.7879730620460279   F   F   F
 13.2095879187136163  4.9253952766695193 21.2309033659948625   F   F   F
  7.1219983358281631 12.1840893164583353 23.0436291883752915   F   F   F
  9.3951084950889943 17.9549673764956097 21.0595026061044273   F   F   F
 10.8029737794672744  5.7939626924245822 20.4560364084562067   F   F   F
  9.0511778836974202  7.0504289729995682 22.1950961694806708   F   F   F
 10.5605120863726558  8.9315248318045306 23.5031209609417893   F   F   F
  8.4826517823515530 11.8490726195085454 20.6616207335102509   F   F   F
 11.5270571584944559 16.4864325474820781 21.9970346824992404   F   F   F
 14.0630428500003610 17.4031784304289232 21.1829091377953560   F   F   F
 15.2312220266582710 12.6514573288258223 23.8054864353431590   F   F   F
 17.2795346547679038 13.5216257481695123 20.6315708814029648   F   F   F
 17.9222046423667791  9.4393850926887524 20.6229504252782476   F   F   F
 13.4742734076568453 11.1589662440314257 25.2324932278453424   F   F   F
 11.2231925357326947 15.3658253299607441 24.6747551640864167   F   F   F
 12.8432460250051932 10.4760918403483920 22.5313324597318072   F   F   F
 12.1964891997437750 10.7430630256353457 19.9864325057228989   F   F   F
 14.3895170712961988  6.7610608568530424 23.1635008275414904   F   F   F
  7.1424283100507502 14.9315610628467343 22.6020088318892221   F   F   F
  6.1233447776812193 10.6692180363272531 20.9925139771374099   F   F   F
 12.9890943169338371  8.4351475503246736 24.7511869509606512   F   F   F
 13.7329622632456729 16.1071081847273234 23.5621547383579895   F   F   F
 12.5194595250298484 13.4159426732378080 22.9957268254262424   F   F   F
  7.0680554468234114 16.7197173803529680 20.4965496446097148   F   F   F
 17.5303903954877001  5.6808305001846913 20.7094644733966220   F   F   F
 14.7640319955218597 12.3492133002238553 21.0352883007554041   F   F   F
 15.3247640723077918  9.6170444010231524 23.7001069175443675   F   F   F
  8.9001967167212328 13.8774991070741915 24.3856044595863075   F   F   F
 11.0864361907202618 10.0205361684870109 25.9778112439548181   F   F   F
 20.5569588974900768  9.7353134724719617 20.8473428875277449   F   F   F
 10.2891358842755096 11.6397546019400551 22.9317635074941748   F   F   F
 13.2632798997075536 14.7367583114847793 20.7689085166713063   F   F   F
 13.5678356868174657 14.0268663617655598 25.4519597579728014   F   F   F
 15.0848162301057140  9.5873836142325732 20.9394911649222308   F   F   F
 17.0340251305772412 11.4111739546028588 22.2868189122462645   F   F   F
  6.1936128750545176 13.4768163089452653 20.6089781175153917   F   F   F
 18.9740652595051067  9.5144900026240897 23.0245896171493278   F   F   F
 16.8856287838915726  7.6415331338941650 22.4721471824793575   F   F   F
  9.1431425396999870 16.5898099293765853 23.3786802626818933   F   F   F
 11.7000642105559400  6.4108357648024219 23.0344665500159316   F   F   F
  7.8841587144192902  9.5111496614592053 22.7955013014191081   F   F   F
 11.0897426413571178 12.7237264507811094 25.5363492687169717   F   F   F
  8.7172123991522259 11.0999773096244478 25.0593618653180279   F   F   F
 10.0270951996431101  9.4105945500041486 20.8821205043478706   F   F   F
 15.7667895870296384 14.8867975198019842 22.2632750952329985   F   F   F
  6.8697307068373501  7.8410002808536268 20.8608509372043756   F   F   F
  9.2518345655236889 15.1104488252003399 20.8861304600564921   F   F   F
 12.4788164650575890  8.0449268218902628 20.9099616811480260   F   F   F
 10.7423712484545142  7.5132071298220096 29.2931866590572056   T   T   T
 11.3761919307230759  8.4121605250560609 29.2807715100131460   T   T   T
 15.0248606339385180  1.8344872448750849 22.9303894488016375   T   T   T
 14.5889433926552812  2.7040153145798964 23.4440986026498379   T   T   T
 15.9209569374298763 15.2717159891670899 29.6397013813913581   T   T   T
 15.5718030759162058 14.4607366154064447 28.9836495264859053   T   T   T
 19.2628164311119718  8.7768863314733387 27.7052966692573612   T   T   T
 19.0381044167465845  9.7621528000093747 28.1397555241313064   T   T   T
 21.7200449711385914 10.8361641972082019 25.5938708105599204   T   T   T
 21.0411827914401499 11.5172870553054292 26.1279286661828358   T   T   T
 15.3807976689303079 20.0278881064662464 23.3344876315111058   T   T   T
 14.7622688972980072 20.8912533259790649 23.0480916531897968   T   T   T
 14.4825544570540838 11.0155259428187104 30.3196836127800751   T   T   T
 15.2701602042181399 10.4319920532624728 29.8205189237509778   T   T   T
 10.5597588231747359 12.0641500586679751 29.9165505546273458   T   T   T
 11.0814974197767189 13.0098995095202437 29.7083515800178972   T   T   T
  9.3436464456256960  4.3341030500234732 24.4381935533612129   T   T   T
  8.6141483071171105  3.5155423203239415 24.5264590489202341   T   T   T
 17.2175216672745890 20.6525348970674827 22.3320464045751343   T   T   T
 16.4977088171466129 19.8393870950300126 22.5071466982136030   T   T   T
 12.0547401719339042 20.9499484173623642 22.6360181826439089   T   T   T
 11.4675869349240784 20.2951891873489458 23.2967309999716150   T   T   T
 21.4691579682706006 14.5317103992750791 25.7624835320976118   T   T   T
 20.3746422503271347 14.4249367992523947 25.7372894551567661   T   T   T
 16.9907115509334510  5.2566967690482791 27.3123137550678301   T   T   T
 15.9537122558605979  5.0331227897396440 27.0213719433691573   T   T   T
  5.7643690191936514 10.5071113331158514 26.1263508910419908   T   T   T
  5.1155575013502048 11.3415011427616648 25.8216588171823176   T   T   T
  9.6732126132956235 15.1563666277927656 27.9939337028068032   T   T   T
  9.7221989961500999 15.3513680020404983 29.0754025180466726   T   T   T
 15.1457448441826283 12.7044024957374475 30.0309688174098284   T   T   T
 15.9385352373437268 11.9833641882099720 29.7828012297006666   T   T   T
  5.3681182278983792 16.4959427303942299 23.0076102507210152   T   T   T
  6.1346268373383470 17.2406520957191418 22.7470867146407336   T   T   T
 17.0102557579350275 10.4657187820736031 29.5160307545322880   T   T   T
 16.2154201083194103  9.7058079936346164 29.5438135498228576   T   T   T
  8.0377186244176215  8.9165509095558271 27.4495549975429753   T   T   T
  7.0763060806900722  8.7836917791392253 27.9672753585760958   T   T   T
  4.9743742020914397  8.1998149952120549 20.9730410300428005   T   T   T
  3.9907989542526821  7.7834218668308344 20.7099887643695588   T   T   T
 20.5845053952000185 11.4671680867881314 27.7699038509334457   T   T   T
 19.8370683386627391 11.1409508953721765 27.0317167536880554   T   T   T
 14.6709269991005069 18.3294500668327949 27.4948683723818021   T   T   T
 14.1193935141845817 18.6720633114053882 26.6069342646576210   T   T   T
  9.2753697167570017  8.9812234270416411 28.2188836979003597   T   T   T
  8.6208820879565629  8.6134576143229200 29.0228701721289504   T   T   T
  9.5835488085854195  7.4205969271630936 28.7150114840699118   T   T   T
  8.8703000798619556  7.3687488711074174 27.8791956969148664   T   T   T
 14.2844729157207233  7.7828980577155278 29.2495371233846058   T   T   T
 13.4226275977614531  8.2040810731494069 29.7878934323675253   T   T   T
  9.9773625933399614  5.1449526359900197 27.6534962503259756   T   T   T
  9.7991931808523578  6.1968612842112361 27.3856458139790604   T   T   T
 18.7951322127933551 19.7125551833822712 21.7112376195880579   T   T   T
 18.1408314418663110 19.2073038733438928 22.4369177246404021   T   T   T
  5.5086346400767354  5.4153160262860585 20.8511232299895646   T   T   T
  6.5073884918543454  5.0337467136844154 21.1097650735495286   T   T   T
 19.1857250308400822  6.1731107679153583 25.7267786247188290   T   T   T
 19.3398774695837119  6.7025173105033211 26.6786009496799821   T   T   T
 14.1691530726240327 17.6852169387811102 28.5441489872480219   T   T   T
 13.5796899666167423 16.9963114911182345 27.9212986594511676   T   T   T
 21.9796375416895131  8.6897967964494072 23.7751937923960099   T   T   T
 22.1202497465211323  9.7335663986581622 24.0926417808246143   T   T   T
 16.5481926402940331 19.0921140498747164 25.8128082965232970   T   T   T
 17.3873642362407743 18.5382418657507309 25.3666954899262187   T   T   T
 11.3593607265690242  2.2697237401753814 24.3385596833205362   T   T   T
 11.0089632630233645  3.0709489512182220 23.6712817961325044   T   T   T
 19.2565766931391664 16.3461822360071949 26.6268091038319596   T   T   T
 19.8834076712854895 15.8035750838159110 25.9038565443738804   T   T   T
 22.7910429497151199 11.8276415692224202 22.3622907091601135   T   T   T
 22.7885515377646648 12.6668277425935312 21.6511224032794019   T   T   T
  7.1418731489411771 12.8069595040012043 27.9383001718989874   T   T   T
  6.4586323529735958 12.5781137491229327 27.1071493822105083   T   T   T
 18.8995669104819264 15.2595271413596940 27.2354168955852174   T   T   T
 19.8800195193921816 14.8807973378278682 26.9109536193923375   T   T   T
  9.2557626879033101 13.1642891006070748 28.7153558910561415   T   T   T
  8.3651287635883698 13.8046700058240628 28.7971086224651813   T   T   T
 10.4241401322142551 21.0160687141078384 21.0158451607566583   T   T   T
 10.0787591929204581 20.0769467182804355 21.4727498376047805   T   T   T
  8.5889819076373737  4.1613795578080319 22.8881824377448524   T   T   T
  8.2387384675456126  3.2682882603593377 23.4264365293169412   T   T   T
 15.2753581537610561  2.9917590685470525 24.2299604549052283   T   T   T
 15.7589931162249481  3.1800426809750402 25.1998297782543155   T   T   T
  9.4619727475135278 19.2444491995809024 23.0177307931364652   T   T   T
  8.6081201120918962 19.7728917148909531 23.4668234172089569   T   T   T
 19.8189843631440858 12.7650225715530645 27.1844782374243223   T   T   T
 20.8441498576235666 12.7335732872081042 26.7869274212475332   T   T   T
 14.3152972643109475  5.0794632212337785 26.8446376576202752   T   T   T
 14.4235578885914517  4.2455622147092775 27.5537841506298804   T   T   T
 13.0505424980375366 10.8407596222947102 30.6246478568870231   T   T   T
 13.3428307580975769 11.5898349419450941 29.8740123004938098   T   T   T
  7.0786623097326480 18.9493249613962966 20.9663242230293889   T   T   T
  6.9036167537942301 18.2661958613060378 21.8105360956988505   T   T   T
 16.8197719330862157  3.2978783587611940 22.0875219630739821   T   T   T
 17.4904854102072633  2.4572947319906220 22.3189579110453948   T   T   T
 21.0994985839930926  6.6261359170344507 21.4520885378528519   T   T   T
 21.9318607496109479  6.7517717950012619 22.1601767042667994   T   T   T
 11.0526855732840161 17.8969155947568694 28.0623032079134767   T   T   T
 10.7447417170094521 17.3384402402107867 27.1660466264886153   T   T   T
 17.8018415661218725  5.7497104732923177 26.6648898915114430   T   T   T
 18.0514483271987771  4.8829085058177037 26.0353259042894649   T   T   T
 12.6777987760587507  7.0252983707227381 29.7191902143005819   T   T   T
 13.1233279121565118  7.7264314888035850 28.9981381082650955   T   T   T
  6.5307149373904618  5.5732040400550824 22.9083954983417009   T   T   T
  5.4948356260380011  5.9234770047486700 22.7889681040105998   T   T   T
  7.6400473432013083 11.1796343679887684 27.5182795370333189   T   T   T
  6.9925788196602090 11.1758787173778025 28.4075322604545057   T   T   T
 11.3668336421976868 13.8826168543489530 30.2225420846533019   T   T   T
 11.6615395958903623 14.2244020220200031 29.2193814295146730   T   T   T
 10.3604559791420066  2.8911224811241620 25.2148929879931600   T   T   T
 10.9700470828650776  3.5125959019803563 24.5424575089834711   T   T   T
 21.5368006134072516 16.1260755906593047 21.4518326005751234   T   T   T
 21.1785154282925276 17.1118206984377466 21.1202631378404320   T   T   T
 10.7740495672621446  5.6129388543440450 28.4004549074502890   T   T   T
 11.6528122574089998  5.8703342973615920 27.7909274508745732   T   T   T
 23.2043154251215569  9.8357233842524856 20.6234495156096074   T   T   T
 22.3569955027380800  9.2264336638485496 20.9710340171946932   T   T   T
 22.3447377322526108 12.3031948863850573 25.1965915104417668   T   T   T
 21.5470589562316519 12.6542096854444761 24.5254006425606690   T   T   T
 13.2523264088199859 13.0839250711530575 30.4211945410628459   T   T   T
 14.1403059402141444 13.0400021622880491 29.7734576115136278   T   T   T
