C4                                      
1.0
       12.8345003128         0.0000000000         0.0000000000
        0.0000000000         9.8800001144         0.0000000000
        0.0000000000         0.0000000000        20.0000000000
    C 
   46
S
Direct
     0.165479766         0.124190764         0.500874901 F F F
     0.333084298         0.999988996         0.500925064 F F F
     0.170973731         0.373760766         0.500778866 F F F
     0.332662429         0.243475922         0.500784397 F F F
     0.501167303         0.122217247         0.500895548 F F F
     0.667869004         0.999989382         0.500912857 F F F
     0.170973861         0.626218119         0.500778198 F F F
     0.665576976         0.250206107         0.500815487 F F F
     0.833291908         0.125625414         0.500890160 F F F
     0.998895671         0.999989479         0.500882244 F F F
     0.165479729         0.875787783         0.500874519 F F F
     0.332662429         0.756502288         0.500783253 F F F
     0.663153501         0.499989479         0.500714874 F F F
     0.832728672         0.375372481         0.500855637 F F F
     0.000405040         0.250512359         0.500875235 F F F
     0.501167303         0.877761251         0.500895214 F F F
     0.665576753         0.749772899         0.500815296 F F F
     0.832728598         0.624606766         0.500855446 F F F
     0.002275756         0.499989720         0.500867367 F F F
     0.833291982         0.874353700         0.500890017 F F F
     0.000405135         0.749466719         0.500874949 F F F
     0.109779191         0.999989286         0.500882578 F F F
     0.112077275         0.250205720         0.500849771 F F F
     0.276494416         0.122216330         0.500888062 F F F
     0.444581377         0.999989189         0.500938416 F F F
     0.114504697         0.499989575         0.500806141 F F F
     0.445001984         0.243474257         0.500769806 F F F
     0.612172888         0.124191669         0.500885057 F F F
     0.778758784         0.999989575         0.500902414 F F F
     0.112077312         0.749772899         0.500849247 F F F
     0.606681300         0.373760694         0.500701809 F F F
     0.777255212         0.250510404         0.500856495 F F F
     0.944372876         0.125626537         0.500886536 F F F
     0.276494379         0.877761734         0.500887489 F F F
     0.445001946         0.756503977         0.500768709 F F F
     0.606681300         0.626218022         0.500701237 F F F
     0.775386353         0.499989672         0.500815010 F F F
     0.944933288         0.375374918         0.500876999 F F F
     0.612172888         0.875787011         0.500884914 F F F
     0.777255212         0.749468795         0.500856209 F F F
     0.944933288         0.624604353         0.500876808 F F F
     0.944372950         0.874352445         0.500886440 F F F
     0.495153831         0.629942226         0.500600100 F F F
     0.282500513         0.370038517         0.500659657 F F F
     0.495153942         0.370035838         0.500601101 F F F
     0.282500625         0.629939910         0.500658417 F F F
