 C  O  C  H 
 1.0000000000000000
    12.8345003127999995    0.0000000000000000    0.0000000000000000
     0.0000000000000000    9.8800001143999996    0.0000000000000000
     0.0000000000000000    0.0000000000000000   20.0000000000000000
 C   O   C   H  
  46   1   2   6
Selective dynamics
Cartesian
  2.1238501084890706  1.2270047625274234 10.0174980199999997   F   F   F
  4.2749705268697680  9.8798913948787401 10.0185012800000006   F   F   F
  2.1943624040000826  3.6927564108382316 10.0155773200000002   F   F   F
  4.2695560490573072  2.4055421372136454 10.0156879399999994   F   F   F
  6.4322319071186325  1.2075064143416530 10.0179109600000000   F   F   F
  8.5717649407474248  9.8798952085587839 10.0182571399999993   F   F   F
  2.1943640724851239  6.1870350873593525 10.0155639599999997   F   F   F
  8.5423479066644781  2.4720363657835787 10.0163097400000005   F   F   F
 10.6948852538797077  1.2411791046915472 10.0178031999999995   F   F   F
 12.8203268019040646  9.8798961669187957 10.0176448800000006   F   F   F
  2.1238496336125592  8.6527833962301219 10.0174903799999999   F   F   F
  4.2695560490573072  7.4742426919838607 10.0156650599999999   F   F   F
  8.5112438160189150  4.9398961097187959 10.0142974799999998   F   F   F
 10.6876564012615276  3.7086801552226114 10.0171127400000000   F   F   F
  0.0051984860066965  2.4750621355786140 10.0175046999999999   F   F   F
  6.4322319071186325  8.6722812602958861 10.0179042799999998   F   F   F
  8.5423450445709079  7.4077563278940195 10.0163059199999989   F   F   F
 10.6876554515085047  6.1711149195350137 10.0171089200000001   F   F   F
  0.0292081910938565  4.9398984907988241 10.0173473400000006   F   F   F
 10.6948862036327306  8.6386146560260624 10.0178003400000009   F   F   F
  0.0051997052842262  7.4047312694589920 10.0174989799999992   F   F   F
  1.4089610612284309  9.8798942600787747 10.0176515600000009   F   F   F
  1.4384558210452716  2.4720325422235345 10.0169954200000006   F   F   F
  3.5486676686394536  1.2074973543815481 10.0177612400000005   F   F   F
  5.7059798221715541  9.8798933017187629 10.0187683199999995   F   F   F
  1.4696105694635693  4.9398970581988078 10.0161228199999996   F   F   F
  5.7113781028446207  2.4055256870134549 10.0153961200000001   F   F   F
  7.8569331225236798  1.2270137039275268 10.0177011399999998   F   F   F
  9.9949798568437469  9.8798971153988067 10.0180482800000004   F   F   F
  1.4384562959217830  7.4077563278940195 10.0169849400000004   F   F   F
  7.7864513346199100  3.6927556994782234 10.0140361800000015   F   F   F
  9.9756822615394309  2.4750428201783903 10.0171298999999987   F   F   F
 12.1205539724218347  1.2411901999316759 10.0177307199999994   F   F   F
  3.5486671937629417  8.6722860323359416 10.0177497800000008   F   F   F
  5.7113776151336086  7.4742593793040548 10.0153741800000002   F   F   F
  7.7864513346199100  6.1870341289993416 10.0140247400000000   F   F   F
  9.9516963901193520  4.9398980165588187 10.0163001999999999   F   F   F
 12.1277465804111326  3.7087042327828903 10.0175399800000005   F   F   F
  7.8569331225236798  8.6527757688700344 10.0176982800000012   F   F   F
  9.9756822615394309  7.4047517803392298 10.0171241800000015   F   F   F
 12.1277465804111326  6.1710910790947375 10.0175361600000006   F   F   F
 12.1205549221748576  8.6386022566259193 10.0177288000000004   F   F   F
  6.3550519988536180  6.2238292649453912 10.0120019999999990   F   F   F
  3.6257529224646605  3.6559805902924065 10.0131931400000003   F   F   F
  6.3550534234831533  3.6559541217720999 10.0120220199999999   F   F   F
  3.6257543599286954  6.2238063828651260 10.0131683400000000   F   F   F
  8.0403440863604452  2.3573365801502630 10.5930427844306099   T   T   T
  6.7626437549839347  2.9575813161080173 10.4417464852182462   T   T   T
  6.6990727121282561  3.6491530782056212  9.0966566925354453   T   T   T
  5.9947159274429200  2.1829678835120245 10.5261798419559192   T   T   T
  6.6225703135245890  3.6775215997043156 11.2530855506237124   T   T   T
  5.7310089186565634  4.1380323396469425  8.9556441416692927   T   T   T
  7.4904427755003598  4.4010713853248706  9.0109731922722016   T   T   T
  6.8522959392504239  2.9317681250619083  8.2836432844828707   T   T   T
  8.1446509265046707  1.7040884094318538  9.8802004312050293   T   T   T
