Cu Au  C  O 
 1.0000000000000000
    17.8685883605840559    0.0000000000000000    0.0000000000000000
     8.9342941802920279   15.4746514500327255    0.0000000000000000
     0.0000000000000000    0.0000000000000000   20.0000000000000000
 Cu  Au  C   O  
  49   4   1   1
Selective dynamics
Cartesian
  0.0000000000000000  0.0000000000000000 10.0000000000000000   F   F   F
  2.5526554800834367  0.0000000000000000 10.0000000000000000   F   F   F
  5.1053109601668734  0.0000000000000000 10.0000000000000000   F   F   F
  7.6579664402503100  0.0000000000000000 10.0000000000000000   F   F   F
 10.2106219203337467  0.0000000000000000 10.0000000000000000   F   F   F
 12.7632774004171843  0.0000000000000000 10.0000000000000000   F   F   F
 15.3159328805006201  0.0000000000000000 10.0000000000000000   F   F   F
  1.2763277400417183  2.2106644928618180 10.0000000000000000   F   F   F
  3.8289832201251550  2.2106644928618180 10.0000000000000000   F   F   F
  6.3816387002085921  2.2106644928618180 10.0000000000000000   F   F   F
  8.9342941802920279  2.2106644928618180 10.0000000000000000   F   F   F
 11.4869496603754655  2.2106644928618180 10.0000000000000000   F   F   F
 14.0396051404589031  2.2106644928618180 10.0000000000000000   F   F   F
 16.5922606205423371  2.2106644928618180 10.0000000000000000   F   F   F
  2.5526554800834367  4.4213289857236360 10.0000000000000000   F   F   F
  5.1053109601668734  4.4213289857236360 10.0000000000000000   F   F   F
  7.6579664402503100  4.4213289857236360 10.0000000000000000   F   F   F
 10.2106219203337467  4.4213289857236360 10.0000000000000000   F   F   F
 12.7632774004171843  4.4213289857236360 10.0000000000000000   F   F   F
 15.3159328805006218  4.4213289857236360 10.0000000000000000   F   F   F
 17.8685883605840559  4.4213289857236360 10.0000000000000000   F   F   F
  3.8289832201251550  6.6319934785854535 10.0000000000000000   F   F   F
  6.3816387002085921  6.6319934785854535 10.0000000000000000   F   F   F
  8.9342941802920279  6.6319934785854535 10.0000000000000000   F   F   F
 11.4869496603754655  6.6319934785854535 10.0000000000000000   F   F   F
 14.0396051404589013  6.6319934785854535 10.0000000000000000   F   F   F
 16.5922606205423406  6.6319934785854535 10.0000000000000000   F   F   F
 19.1449161006257746  6.6319934785854535 10.0000000000000000   F   F   F
  5.1053109601668734  8.8426579714472719 10.0000000000000000   F   F   F
  7.6579664402503100  8.8426579714472719 10.0000000000000000   F   F   F
 10.2106219203337467  8.8426579714472719 10.0000000000000000   F   F   F
 12.7632774004171843  8.8426579714472719 10.0000000000000000   F   F   F
 15.3159328805006201  8.8426579714472719 10.0000000000000000   F   F   F
 17.8685883605840559  8.8426579714472719 10.0000000000000000   F   F   F
 20.4212438406674934  8.8426579714472719 10.0000000000000000   F   F   F
  6.3816387002085921 11.0533224643090904 10.0000000000000000   F   F   F
  8.9342941802920279 11.0533224643090904 10.0000000000000000   F   F   F
 11.4869496603754655 11.0533224643090904 10.0000000000000000   F   F   F
 14.0396051404589013 11.0533224643090904 10.0000000000000000   F   F   F
 16.5922606205423371 11.0533224643090904 10.0000000000000000   F   F   F
 19.1449161006257746 11.0533224643090904 10.0000000000000000   F   F   F
 21.6975715807092122 11.0533224643090904 10.0000000000000000   F   F   F
  7.6579664402503100 13.2639869571709070 10.0000000000000000   F   F   F
 10.2106219203337467 13.2639869571709070 10.0000000000000000   F   F   F
 12.7632774004171843 13.2639869571709070 10.0000000000000000   F   F   F
 15.3159328805006201 13.2639869571709070 10.0000000000000000   F   F   F
 17.8685883605840559 13.2639869571709070 10.0000000000000000   F   F   F
 20.4212438406674934 13.2639869571709070 10.0000000000000000   F   F   F
 22.9738993207509310 13.2639869571709070 10.0000000000000000   F   F   F
 11.4870000000000001  6.6319999999999997 14.0000000000000000   F   F   F
 12.7635000000000005  7.3689999999999998 12.0000000000000000   F   F   F
 10.2110000000000003  7.3689999999999998 12.0000000000000000   F   F   F
 11.4870000000000001  5.1580000000000004 12.0000000000000000   F   F   F
 11.2532142859089639  6.4503009488765617 15.4409033769526083   T   T   T
 10.3782979617141553  6.1358320872369507 14.8529996767460730   T   T   T
